########################################################################
#                                                                      #
#              cpw2000 cpw.in input file generated by rede             #
#                                                                      #
########################################################################

#------------------------------------------------
# Rede metadata
#------------------------------------------------

%block Rede.Superlattice
                 5     0     0
                 0     5     0
                 0     0     5
%endblock Rede.Superlattice

Rede.NumberOfLatticePlanes        5

Rede.Version                  2.6

Rede.Title             Si_250   5x5x5x  fcc                           

Rede.Date                     17-Dec-20

Rede.Time                     20:44:48

Rede.Name                     Si25_10_@Si_[1,1,-1] 

SystemLabel                   Si25_10_@Si_[1,1,-1] 


#------------------------------------------------
# Crystal structure
#------------------------------------------------

LatticeConstant               10.26310648     bohr

%block LatticeVectors
         3.53553391         0.00000000         0.00000000
         1.76776695         3.06186218         0.00000000
         1.76776695         1.02062073         2.88675135
%endblock LatticeVectors

NumberOfSpecies                1

NumberOfAtoms              250

%block Chemical_Species_Label
     1      14   Si
%endblock Chemical_Species_Label

AtomicCoordinatesFormat     Fractional

%block AtomicCoordinatesAndAtomicSpecies
         0.00000000      0.20000000      0.00000000        1     #  Si       1
         0.40000000      0.60000000      0.00000000        1     #  Si       2
         0.00000000      0.00000000      0.00000000        1     #  Si       3
         0.20000000      0.60000000      0.00000000        1     #  Si       4
         0.60000000      0.40000000      0.00000000        1     #  Si       5
         0.00000000      0.80000000      0.00000000        1     #  Si       6
         0.60000000      0.80000000      0.00000000        1     #  Si       7
         0.40000000      0.80000000      0.00000000        1     #  Si       8
         0.80000000      0.40000000      0.00000000        1     #  Si       9
         0.40000000      0.00000000      0.00000000        1     #  Si      10
         0.40000000      0.20000000      0.00000000        1     #  Si      11
         0.60000000      0.20000000      0.00000000        1     #  Si      12
         0.00000000      0.40000000      0.00000000        1     #  Si      13
         0.80000000      0.80000000      0.00000000        1     #  Si      14
         0.80000000      0.20000000      0.00000000        1     #  Si      15
         0.20000000      0.20000000      0.00000000        1     #  Si      16
         0.80000000      0.00000000      0.00000000        1     #  Si      17
         0.00000000      0.60000000      0.00000000        1     #  Si      18
         0.20000000      0.80000000      0.00000000        1     #  Si      19
         0.20000000      0.00000000      0.00000000        1     #  Si      20
         0.40000000      0.40000000      0.00000000        1     #  Si      21
         0.80000000      0.60000000      0.00000000        1     #  Si      22
         0.60000000      0.00000000      0.00000000        1     #  Si      23
         0.20000000      0.40000000      0.00000000        1     #  Si      24
         0.60000000      0.60000000      0.00000000        1     #  Si      25
         0.65000000      0.85000000      0.05000000        1     #  Si      26
         0.25000000      0.85000000      0.05000000        1     #  Si      27
         0.85000000      0.65000000      0.05000000        1     #  Si      28
         0.25000000      0.45000000      0.05000000        1     #  Si      29
         0.05000000      0.45000000      0.05000000        1     #  Si      30
         0.05000000      0.65000000      0.05000000        1     #  Si      31
         0.85000000      0.25000000      0.05000000        1     #  Si      32
         0.45000000      0.65000000      0.05000000        1     #  Si      33
         0.25000000      0.05000000      0.05000000        1     #  Si      34
         0.85000000      0.05000000      0.05000000        1     #  Si      35
         0.65000000      0.25000000      0.05000000        1     #  Si      36
         0.45000000      0.85000000      0.05000000        1     #  Si      37
         0.45000000      0.25000000      0.05000000        1     #  Si      38
         0.45000000      0.45000000      0.05000000        1     #  Si      39
         0.25000000      0.25000000      0.05000000        1     #  Si      40
         0.85000000      0.45000000      0.05000000        1     #  Si      41
         0.25000000      0.65000000      0.05000000        1     #  Si      42
         0.45000000      0.05000000      0.05000000        1     #  Si      43
         0.05000000      0.05000000      0.05000000        1     #  Si      44
         0.65000000      0.05000000      0.05000000        1     #  Si      45
         0.65000000      0.65000000      0.05000000        1     #  Si      46
         0.05000000      0.85000000      0.05000000        1     #  Si      47
         0.65000000      0.45000000      0.05000000        1     #  Si      48
         0.05000000      0.25000000      0.05000000        1     #  Si      49
         0.85000000      0.85000000      0.05000000        1     #  Si      50
         0.20000000      0.00000000      0.20000000        1     #  Si      51
         0.80000000      0.80000000      0.20000000        1     #  Si      52
         0.80000000      0.00000000      0.20000000        1     #  Si      53
         0.00000000      0.20000000      0.20000000        1     #  Si      54
         0.00000000      0.40000000      0.20000000        1     #  Si      55
         0.40000000      0.80000000      0.20000000        1     #  Si      56
         0.60000000      0.00000000      0.20000000        1     #  Si      57
         0.20000000      0.40000000      0.20000000        1     #  Si      58
         0.00000000      0.80000000      0.20000000        1     #  Si      59
         0.40000000      0.60000000      0.20000000        1     #  Si      60
         0.20000000      0.20000000      0.20000000        1     #  Si      61
         0.20000000      0.80000000      0.20000000        1     #  Si      62
         0.40000000      0.00000000      0.20000000        1     #  Si      63
         0.20000000      0.60000000      0.20000000        1     #  Si      64
         0.00000000      0.00000000      0.20000000        1     #  Si      65
         0.80000000      0.40000000      0.20000000        1     #  Si      66
         0.40000000      0.20000000      0.20000000        1     #  Si      67
         0.60000000      0.60000000      0.20000000        1     #  Si      68
         0.60000000      0.20000000      0.20000000        1     #  Si      69
         0.80000000      0.60000000      0.20000000        1     #  Si      70
         0.40000000      0.40000000      0.20000000        1     #  Si      71
         0.60000000      0.40000000      0.20000000        1     #  Si      72
         0.00000000      0.60000000      0.20000000        1     #  Si      73
         0.80000000      0.20000000      0.20000000        1     #  Si      74
         0.60000000      0.80000000      0.20000000        1     #  Si      75
         0.85000000      0.85000000      0.25000000        1     #  Si      76
         0.05000000      0.25000000      0.25000000        1     #  Si      77
         0.65000000      0.25000000      0.25000000        1     #  Si      78
         0.65000000      0.45000000      0.25000000        1     #  Si      79
         0.05000000      0.65000000      0.25000000        1     #  Si      80
         0.65000000      0.65000000      0.25000000        1     #  Si      81
         0.05000000      0.85000000      0.25000000        1     #  Si      82
         0.85000000      0.65000000      0.25000000        1     #  Si      83
         0.85000000      0.05000000      0.25000000        1     #  Si      84
         0.05000000      0.05000000      0.25000000        1     #  Si      85
         0.25000000      0.05000000      0.25000000        1     #  Si      86
         0.25000000      0.25000000      0.25000000        1     #  Si      87
         0.45000000      0.65000000      0.25000000        1     #  Si      88
         0.25000000      0.45000000      0.25000000        1     #  Si      89
         0.45000000      0.85000000      0.25000000        1     #  Si      90
         0.25000000      0.65000000      0.25000000        1     #  Si      91
         0.85000000      0.45000000      0.25000000        1     #  Si      92
         0.65000000      0.85000000      0.25000000        1     #  Si      93
         0.45000000      0.45000000      0.25000000        1     #  Si      94
         0.05000000      0.45000000      0.25000000        1     #  Si      95
         0.85000000      0.25000000      0.25000000        1     #  Si      96
         0.45000000      0.25000000      0.25000000        1     #  Si      97
         0.45000000      0.05000000      0.25000000        1     #  Si      98
         0.65000000      0.05000000      0.25000000        1     #  Si      99
         0.25000000      0.85000000      0.25000000        1     #  Si     100
         0.60000000      0.60000000      0.40000000        1     #  Si     101
         0.20000000      0.60000000      0.40000000        1     #  Si     102
         0.20000000      0.00000000      0.40000000        1     #  Si     103
         0.60000000      0.20000000      0.40000000        1     #  Si     104
         0.40000000      0.80000000      0.40000000        1     #  Si     105
         0.60000000      0.80000000      0.40000000        1     #  Si     106
         0.80000000      0.60000000      0.40000000        1     #  Si     107
         0.40000000      0.40000000      0.40000000        1     #  Si     108
         0.00000000      0.20000000      0.40000000        1     #  Si     109
         0.00000000      0.40000000      0.40000000        1     #  Si     110
         0.80000000      0.40000000      0.40000000        1     #  Si     111
         0.00000000      0.00000000      0.40000000        1     #  Si     112
         0.00000000      0.60000000      0.40000000        1     #  Si     113
         0.20000000      0.20000000      0.40000000        1     #  Si     114
         0.60000000      0.00000000      0.40000000        1     #  Si     115
         0.80000000      0.80000000      0.40000000        1     #  Si     116
         0.40000000      0.00000000      0.40000000        1     #  Si     117
         0.20000000      0.80000000      0.40000000        1     #  Si     118
         0.80000000      0.20000000      0.40000000        1     #  Si     119
         0.40000000      0.20000000      0.40000000        1     #  Si     120
         0.40000000      0.60000000      0.40000000        1     #  Si     121
         0.20000000      0.40000000      0.40000000        1     #  Si     122
         0.60000000      0.40000000      0.40000000        1     #  Si     123
         0.80000000      0.00000000      0.40000000        1     #  Si     124
         0.00000000      0.80000000      0.40000000        1     #  Si     125
         0.65000000      0.25000000      0.45000000        1     #  Si     126
         0.85000000      0.65000000      0.45000000        1     #  Si     127
         0.45000000      0.45000000      0.45000000        1     #  Si     128
         0.65000000      0.85000000      0.45000000        1     #  Si     129
         0.85000000      0.85000000      0.45000000        1     #  Si     130
         0.25000000      0.65000000      0.45000000        1     #  Si     131
         0.05000000      0.25000000      0.45000000        1     #  Si     132
         0.05000000      0.45000000      0.45000000        1     #  Si     133
         0.25000000      0.25000000      0.45000000        1     #  Si     134
         0.25000000      0.05000000      0.45000000        1     #  Si     135
         0.45000000      0.05000000      0.45000000        1     #  Si     136
         0.85000000      0.45000000      0.45000000        1     #  Si     137
         0.45000000      0.85000000      0.45000000        1     #  Si     138
         0.05000000      0.65000000      0.45000000        1     #  Si     139
         0.65000000      0.65000000      0.45000000        1     #  Si     140
         0.65000000      0.05000000      0.45000000        1     #  Si     141
         0.25000000      0.85000000      0.45000000        1     #  Si     142
         0.85000000      0.25000000      0.45000000        1     #  Si     143
         0.45000000      0.25000000      0.45000000        1     #  Si     144
         0.45000000      0.65000000      0.45000000        1     #  Si     145
         0.25000000      0.45000000      0.45000000        1     #  Si     146
         0.65000000      0.45000000      0.45000000        1     #  Si     147
         0.85000000      0.05000000      0.45000000        1     #  Si     148
         0.05000000      0.85000000      0.45000000        1     #  Si     149
         0.05000000      0.05000000      0.45000000        1     #  Si     150
         0.00000000      0.20000000      0.60000000        1     #  Si     151
         0.60000000      0.00000000      0.60000000        1     #  Si     152
         0.40000000      0.20000000      0.60000000        1     #  Si     153
         0.80000000      0.60000000      0.60000000        1     #  Si     154
         0.60000000      0.80000000      0.60000000        1     #  Si     155
         0.20000000      0.40000000      0.60000000        1     #  Si     156
         0.40000000      0.80000000      0.60000000        1     #  Si     157
         0.60000000      0.60000000      0.60000000        1     #  Si     158
         0.20000000      0.80000000      0.60000000        1     #  Si     159
         0.80000000      0.20000000      0.60000000        1     #  Si     160
         0.40000000      0.00000000      0.60000000        1     #  Si     161
         0.40000000      0.60000000      0.60000000        1     #  Si     162
         0.60000000      0.40000000      0.60000000        1     #  Si     163
         0.00000000      0.80000000      0.60000000        1     #  Si     164
         0.20000000      0.00000000      0.60000000        1     #  Si     165
         0.80000000      0.00000000      0.60000000        1     #  Si     166
         0.00000000      0.40000000      0.60000000        1     #  Si     167
         0.80000000      0.80000000      0.60000000        1     #  Si     168
         0.20000000      0.20000000      0.60000000        1     #  Si     169
         0.60000000      0.20000000      0.60000000        1     #  Si     170
         0.20000000      0.60000000      0.60000000        1     #  Si     171
         0.40000000      0.40000000      0.60000000        1     #  Si     172
         0.00000000      0.00000000      0.60000000        1     #  Si     173
         0.00000000      0.60000000      0.60000000        1     #  Si     174
         0.80000000      0.40000000      0.60000000        1     #  Si     175
         0.05000000      0.65000000      0.65000000        1     #  Si     176
         0.25000000      0.05000000      0.65000000        1     #  Si     177
         0.85000000      0.85000000      0.65000000        1     #  Si     178
         0.45000000      0.25000000      0.65000000        1     #  Si     179
         0.65000000      0.85000000      0.65000000        1     #  Si     180
         0.25000000      0.45000000      0.65000000        1     #  Si     181
         0.85000000      0.45000000      0.65000000        1     #  Si     182
         0.45000000      0.85000000      0.65000000        1     #  Si     183
         0.65000000      0.65000000      0.65000000        1     #  Si     184
         0.25000000      0.85000000      0.65000000        1     #  Si     185
         0.85000000      0.25000000      0.65000000        1     #  Si     186
         0.85000000      0.65000000      0.65000000        1     #  Si     187
         0.45000000      0.05000000      0.65000000        1     #  Si     188
         0.45000000      0.65000000      0.65000000        1     #  Si     189
         0.65000000      0.45000000      0.65000000        1     #  Si     190
         0.05000000      0.85000000      0.65000000        1     #  Si     191
         0.85000000      0.05000000      0.65000000        1     #  Si     192
         0.05000000      0.45000000      0.65000000        1     #  Si     193
         0.25000000      0.25000000      0.65000000        1     #  Si     194
         0.65000000      0.25000000      0.65000000        1     #  Si     195
         0.25000000      0.65000000      0.65000000        1     #  Si     196
         0.45000000      0.45000000      0.65000000        1     #  Si     197
         0.05000000      0.05000000      0.65000000        1     #  Si     198
         0.05000000      0.25000000      0.65000000        1     #  Si     199
         0.65000000      0.05000000      0.65000000        1     #  Si     200
         0.80000000      0.80000000      0.80000000        1     #  Si     201
         0.80000000      0.60000000      0.80000000        1     #  Si     202
         0.60000000      0.80000000      0.80000000        1     #  Si     203
         0.80000000      0.40000000      0.80000000        1     #  Si     204
         0.40000000      0.80000000      0.80000000        1     #  Si     205
         0.60000000      0.60000000      0.80000000        1     #  Si     206
         0.20000000      0.80000000      0.80000000        1     #  Si     207
         0.80000000      0.20000000      0.80000000        1     #  Si     208
         0.60000000      0.40000000      0.80000000        1     #  Si     209
         0.40000000      0.60000000      0.80000000        1     #  Si     210
         0.00000000      0.80000000      0.80000000        1     #  Si     211
         0.00000000      0.20000000      0.80000000        1     #  Si     212
         0.80000000      0.00000000      0.80000000        1     #  Si     213
         0.60000000      0.20000000      0.80000000        1     #  Si     214
         0.20000000      0.00000000      0.80000000        1     #  Si     215
         0.20000000      0.60000000      0.80000000        1     #  Si     216
         0.40000000      0.40000000      0.80000000        1     #  Si     217
         0.00000000      0.60000000      0.80000000        1     #  Si     218
         0.60000000      0.00000000      0.80000000        1     #  Si     219
         0.40000000      0.20000000      0.80000000        1     #  Si     220
         0.20000000      0.40000000      0.80000000        1     #  Si     221
         0.40000000      0.00000000      0.80000000        1     #  Si     222
         0.00000000      0.40000000      0.80000000        1     #  Si     223
         0.00000000      0.00000000      0.80000000        1     #  Si     224
         0.20000000      0.20000000      0.80000000        1     #  Si     225
         0.85000000      0.85000000      0.85000000        1     #  Si     226
         0.85000000      0.65000000      0.85000000        1     #  Si     227
         0.65000000      0.85000000      0.85000000        1     #  Si     228
         0.85000000      0.45000000      0.85000000        1     #  Si     229
         0.45000000      0.85000000      0.85000000        1     #  Si     230
         0.65000000      0.65000000      0.85000000        1     #  Si     231
         0.25000000      0.85000000      0.85000000        1     #  Si     232
         0.85000000      0.25000000      0.85000000        1     #  Si     233
         0.65000000      0.45000000      0.85000000        1     #  Si     234
         0.45000000      0.65000000      0.85000000        1     #  Si     235
         0.05000000      0.85000000      0.85000000        1     #  Si     236
         0.05000000      0.25000000      0.85000000        1     #  Si     237
         0.85000000      0.05000000      0.85000000        1     #  Si     238
         0.65000000      0.25000000      0.85000000        1     #  Si     239
         0.25000000      0.05000000      0.85000000        1     #  Si     240
         0.25000000      0.65000000      0.85000000        1     #  Si     241
         0.45000000      0.45000000      0.85000000        1     #  Si     242
         0.05000000      0.65000000      0.85000000        1     #  Si     243
         0.65000000      0.05000000      0.85000000        1     #  Si     244
         0.45000000      0.25000000      0.85000000        1     #  Si     245
         0.25000000      0.45000000      0.85000000        1     #  Si     246
         0.45000000      0.05000000      0.85000000        1     #  Si     247
         0.05000000      0.45000000      0.85000000        1     #  Si     248
         0.05000000      0.05000000      0.85000000        1     #  Si     249
         0.25000000      0.25000000      0.85000000        1     #  Si     250
%endblock AtomicCoordinatesAndAtomicSpecies

StructureSource               Rede

#------------------------------------------------
# Energy cutoff, bands,  and Brillouin mesh
#------------------------------------------------

PWEnergyCutoff                   8.0000      hartree

NumberOfEigenStates                 508

%block kgrid_Monkhorst_Pack
               2       0       0       0.500000
               0       2       0       0.500000
               0       0       2       0.500000
%endblock kgrid_Monkhorst_Pack


#------------------------------------------------
# Active options
#------------------------------------------------

MD.TypeOfRun                  ONE           # ONE,EPILBF,MICRO,LANG,LBFSYM,VCSLNG,VCSLBF,RSTRT,EPILNG

MD.PotentialModel             KEATNG        # KEATNG (do not use LENJON,LJCLST) 

UseSymmetry                   .true.        # .true. , .false. 

MD.UseKeatingCorrections      .true.        # .true. , .false. 

MD.CG.UseFixedkplusG          .true.        # .true. , .false. 

TypeOfScfDiag                 PW            # PW,AO,AOJC,AOJCPW

DualApproximation             .true.        #  .true. , .false.

XC.Authors                    CA            # CA, PBE, TBL

Xc.TBL.C                      1.04          # sets Tran-Blaha constant (if negative use calculated)

PrintingLevel                 1             # 1, 2, 3


#------------------------------------------------
# MD Inactive options
#------------------------------------------------

#MD.InitialTemperature        300 K           #
#MD.TargetTemperature         300 K           #
#MD.TargetPressure            0 GPa           #

#MD.NumberOfSteps             10              #
#MD.LengthTimeStep            2.4 fs          #
#MD.FrictionFracInvTimeStep   20.0            #

#MD.CG.Tolerance         0.0000 'har/bohr'    #
#MD.CG.StepMax                0.01 bohr       #
#MD.CG.FixedkplusGTol    0.01 'har/bohr'      #

#%block MD.TargetStress                       #
   0.0 0.0 0.0                                #
   0.0 0.0 0.0                                #
   0.0 0.0 0.0                                #
#%endblock   MD.TargetStress                  #

#MD.CellMass                  10.0            #
#MD.Seed                      76978           #

#------------------------------------------------
# Electronic Structure Inactive options
#------------------------------------------------

#MaxSCFIterations             20              #

#MaxSCFIterations             20              #
#TypeOfPseudoMixing           BROYD1          # BROYD1, BFGS#

#ElectronicTemperature        1000 K          #
#TypeOfPseudopotential        PSEUKB          # PSEUKB

#ScfTolerance                 0.00005         #
#DiagTolerance                0.0000          #
#SymmTolerance                1.0E-5          #
