########################################################################
#                                                                      #
#              cpw2000 cpw.in input file generated by rede             #
#                                                                      #
########################################################################

#------------------------------------------------
# Rede metadata
#------------------------------------------------

%block Rede.Superlattice
                 1     0     0
                 0     1     0
                 0     0     1
%endblock Rede.Superlattice

Rede.NumberOfLatticePlanes        1

Rede.Version                  2.6

Rede.Title              Si_2   1x1x1x fcc                             

Rede.Date                     17-Dec-20

Rede.Time                     19:55:12

Rede.Name                     Si1_2_@Si_[1,1,-1] 

SystemLabel                   Si1_2_@Si_[1,1,-1] 


#------------------------------------------------
# Crystal structure
#------------------------------------------------

LatticeConstant               10.26310648     bohr

%block LatticeVectors
         0.70710678         0.00000000         0.00000000
         0.35355339         0.61237244         0.00000000
         0.35355339         0.20412415         0.57735027
%endblock LatticeVectors

NumberOfSpecies                1

NumberOfAtoms                2

%block Chemical_Species_Label
     1      14   Si
%endblock Chemical_Species_Label

AtomicCoordinatesFormat     Fractional

%block AtomicCoordinatesAndAtomicSpecies
         0.00000000      0.00000000      0.00000000        1     #  Si       1
         0.25000000      0.25000000      0.25000000        1     #  Si       2
%endblock AtomicCoordinatesAndAtomicSpecies

StructureSource               Rede

#------------------------------------------------
# Energy cutoff, bands,  and Brillouin mesh
#------------------------------------------------

PWEnergyCutoff                   8.0000      hartree

NumberOfEigenStates                  12

%block kgrid_Monkhorst_Pack
               4       0       0       0.500000
               0       4       0       0.500000
               0       0       4       0.500000
%endblock kgrid_Monkhorst_Pack


#------------------------------------------------
# Active options
#------------------------------------------------

MD.TypeOfRun                  ONE          # ONE,EPILBF,MICRO,LANG,LBFSYM,VCSLNG,VCSLBF,RSTRT,EPILNG

MD.PotentialModel             KEATNG        # KEATNG (do not use LENJON,LJCLST) 

UseSymmetry                   .true.        # .true. , .false. 

MD.UseKeatingCorrections      .true.        # .true. , .false. 

MD.CG.UseFixedkplusG          .true.        # .true. , .false. 

TypeOfScfDiag                 PW            # PW,AO,AOJC,AOJCPW

DualApproximation             .true.        #  .true. , .false.

XC.Authors                    CA            # CA, PBE, TBL

Xc.TBL.C                      1.04          # sets Tran-Blaha constant (if negative use calculated)

PrintingLevel                 1             # 1, 2, 3


#------------------------------------------------
# MD Inactive options
#------------------------------------------------

#MD.InitialTemperature        300 K           #
#MD.TargetTemperature         300 K           #
#MD.TargetPressure            0 GPa           #

#MD.NumberOfSteps             10              #
#MD.LengthTimeStep            2.4 fs          #
#MD.FrictionFracInvTimeStep   20.0            #

#MD.CG.Tolerance         0.0001 'har/bohr'    #
#MD.CG.StepMax                0.01 bohr       #
#MD.CG.FixedkplusGTol    0.01 'har/bohr'      #

#%block MD.TargetStress                       #
   0.0 0.0 0.0                                #
   0.0 0.0 0.0                                #
   0.0 0.0 0.0                                #
#%endblock   MD.TargetStress                  #

#MD.CellMass                  10.0            #
#MD.Seed                      76978           #

#------------------------------------------------
# Electronic Structure Inactive options
#------------------------------------------------

#MaxSCFIterations             20              #

#MaxSCFIterations             20              #
#TypeOfPseudoMixing           BROYD1          # BROYD1, BFGS#

#ElectronicTemperature        1000 K          #
#TypeOfPseudopotential        PSEUKB          # PSEUKB

#ScfTolerance                 0.00005         #
#DiagTolerance                0.0001          #
#SymmTolerance                1.0E-5          #
