########################################################################
#                                                                      #
#              cpw2000 cpw.in input file generated by rede             #
#                                                                      #
########################################################################

#------------------------------------------------
# Rede metadata
#------------------------------------------------

%block Rede.Superlattice
                 4     0     0
                 0     4     0
                 0     0     4
%endblock Rede.Superlattice

Rede.NumberOfLatticePlanes        4

Rede.Version                  2.6

Rede.Title            Si_128    4x4x4x   fcc                          

Rede.Date                     17-Dec-20

Rede.Time                     19:56:55

Rede.Name                     Si16_8_@Si_[1,1,-1] 

SystemLabel                   Si16_8_@Si_[1,1,-1] 


#------------------------------------------------
# Crystal structure
#------------------------------------------------

LatticeConstant               10.26310648     bohr

%block LatticeVectors
         2.82842712         0.00000000         0.00000000
         1.41421356         2.44948974         0.00000000
         1.41421356         0.81649658         2.30940108
%endblock LatticeVectors

NumberOfSpecies                1

NumberOfAtoms              128

%block Chemical_Species_Label
     1      14   Si
%endblock Chemical_Species_Label

AtomicCoordinatesFormat     Fractional

%block AtomicCoordinatesAndAtomicSpecies
         0.25000000      0.50000000      0.00000000        1     #  Si       1
         0.50000000      0.50000000      0.00000000        1     #  Si       2
         0.75000000      0.75000000      0.00000000        1     #  Si       3
         0.00000000      0.25000000      0.00000000        1     #  Si       4
         0.75000000      0.50000000      0.00000000        1     #  Si       5
         0.25000000      0.75000000      0.00000000        1     #  Si       6
         0.25000000      0.00000000      0.00000000        1     #  Si       7
         0.00000000      0.00000000      0.00000000        1     #  Si       8
         0.00000000      0.50000000      0.00000000        1     #  Si       9
         0.00000000      0.75000000      0.00000000        1     #  Si      10
         0.75000000      0.00000000      0.00000000        1     #  Si      11
         0.25000000      0.25000000      0.00000000        1     #  Si      12
         0.50000000      0.75000000      0.00000000        1     #  Si      13
         0.50000000      0.25000000      0.00000000        1     #  Si      14
         0.50000000      0.00000000      0.00000000        1     #  Si      15
         0.75000000      0.25000000      0.00000000        1     #  Si      16
         0.31250000      0.31250000      0.06250000        1     #  Si      17
         0.06250000      0.56250000      0.06250000        1     #  Si      18
         0.06250000      0.06250000      0.06250000        1     #  Si      19
         0.56250000      0.56250000      0.06250000        1     #  Si      20
         0.81250000      0.31250000      0.06250000        1     #  Si      21
         0.81250000      0.56250000      0.06250000        1     #  Si      22
         0.56250000      0.06250000      0.06250000        1     #  Si      23
         0.06250000      0.31250000      0.06250000        1     #  Si      24
         0.56250000      0.81250000      0.06250000        1     #  Si      25
         0.31250000      0.81250000      0.06250000        1     #  Si      26
         0.31250000      0.06250000      0.06250000        1     #  Si      27
         0.31250000      0.56250000      0.06250000        1     #  Si      28
         0.81250000      0.06250000      0.06250000        1     #  Si      29
         0.56250000      0.31250000      0.06250000        1     #  Si      30
         0.81250000      0.81250000      0.06250000        1     #  Si      31
         0.06250000      0.81250000      0.06250000        1     #  Si      32
         0.75000000      0.00000000      0.25000000        1     #  Si      33
         0.00000000      0.50000000      0.25000000        1     #  Si      34
         0.00000000      0.25000000      0.25000000        1     #  Si      35
         0.50000000      0.25000000      0.25000000        1     #  Si      36
         0.75000000      0.75000000      0.25000000        1     #  Si      37
         0.00000000      0.00000000      0.25000000        1     #  Si      38
         0.25000000      0.25000000      0.25000000        1     #  Si      39
         0.50000000      0.75000000      0.25000000        1     #  Si      40
         0.25000000      0.50000000      0.25000000        1     #  Si      41
         0.50000000      0.00000000      0.25000000        1     #  Si      42
         0.25000000      0.75000000      0.25000000        1     #  Si      43
         0.00000000      0.75000000      0.25000000        1     #  Si      44
         0.75000000      0.25000000      0.25000000        1     #  Si      45
         0.75000000      0.50000000      0.25000000        1     #  Si      46
         0.25000000      0.00000000      0.25000000        1     #  Si      47
         0.50000000      0.50000000      0.25000000        1     #  Si      48
         0.06250000      0.06250000      0.31250000        1     #  Si      49
         0.81250000      0.06250000      0.31250000        1     #  Si      50
         0.31250000      0.06250000      0.31250000        1     #  Si      51
         0.06250000      0.31250000      0.31250000        1     #  Si      52
         0.31250000      0.31250000      0.31250000        1     #  Si      53
         0.81250000      0.56250000      0.31250000        1     #  Si      54
         0.56250000      0.81250000      0.31250000        1     #  Si      55
         0.56250000      0.31250000      0.31250000        1     #  Si      56
         0.31250000      0.56250000      0.31250000        1     #  Si      57
         0.31250000      0.81250000      0.31250000        1     #  Si      58
         0.06250000      0.81250000      0.31250000        1     #  Si      59
         0.81250000      0.31250000      0.31250000        1     #  Si      60
         0.81250000      0.81250000      0.31250000        1     #  Si      61
         0.06250000      0.56250000      0.31250000        1     #  Si      62
         0.56250000      0.56250000      0.31250000        1     #  Si      63
         0.56250000      0.06250000      0.31250000        1     #  Si      64
         0.75000000      0.75000000      0.50000000        1     #  Si      65
         0.25000000      0.00000000      0.50000000        1     #  Si      66
         0.50000000      0.75000000      0.50000000        1     #  Si      67
         0.25000000      0.75000000      0.50000000        1     #  Si      68
         0.75000000      0.50000000      0.50000000        1     #  Si      69
         0.00000000      0.25000000      0.50000000        1     #  Si      70
         0.00000000      0.50000000      0.50000000        1     #  Si      71
         0.75000000      0.25000000      0.50000000        1     #  Si      72
         0.50000000      0.00000000      0.50000000        1     #  Si      73
         0.00000000      0.00000000      0.50000000        1     #  Si      74
         0.25000000      0.25000000      0.50000000        1     #  Si      75
         0.50000000      0.50000000      0.50000000        1     #  Si      76
         0.00000000      0.75000000      0.50000000        1     #  Si      77
         0.75000000      0.00000000      0.50000000        1     #  Si      78
         0.50000000      0.25000000      0.50000000        1     #  Si      79
         0.25000000      0.50000000      0.50000000        1     #  Si      80
         0.56250000      0.81250000      0.56250000        1     #  Si      81
         0.81250000      0.56250000      0.56250000        1     #  Si      82
         0.06250000      0.31250000      0.56250000        1     #  Si      83
         0.81250000      0.81250000      0.56250000        1     #  Si      84
         0.06250000      0.56250000      0.56250000        1     #  Si      85
         0.31250000      0.81250000      0.56250000        1     #  Si      86
         0.81250000      0.31250000      0.56250000        1     #  Si      87
         0.56250000      0.06250000      0.56250000        1     #  Si      88
         0.31250000      0.31250000      0.56250000        1     #  Si      89
         0.56250000      0.56250000      0.56250000        1     #  Si      90
         0.06250000      0.81250000      0.56250000        1     #  Si      91
         0.81250000      0.06250000      0.56250000        1     #  Si      92
         0.56250000      0.31250000      0.56250000        1     #  Si      93
         0.31250000      0.56250000      0.56250000        1     #  Si      94
         0.06250000      0.06250000      0.56250000        1     #  Si      95
         0.31250000      0.06250000      0.56250000        1     #  Si      96
         0.50000000      0.75000000      0.75000000        1     #  Si      97
         0.75000000      0.50000000      0.75000000        1     #  Si      98
         0.25000000      0.00000000      0.75000000        1     #  Si      99
         0.75000000      0.25000000      0.75000000        1     #  Si     100
         0.25000000      0.75000000      0.75000000        1     #  Si     101
         0.50000000      0.50000000      0.75000000        1     #  Si     102
         0.00000000      0.75000000      0.75000000        1     #  Si     103
         0.75000000      0.00000000      0.75000000        1     #  Si     104
         0.50000000      0.25000000      0.75000000        1     #  Si     105
         0.25000000      0.50000000      0.75000000        1     #  Si     106
         0.50000000      0.00000000      0.75000000        1     #  Si     107
         0.00000000      0.50000000      0.75000000        1     #  Si     108
         0.25000000      0.25000000      0.75000000        1     #  Si     109
         0.75000000      0.75000000      0.75000000        1     #  Si     110
         0.00000000      0.00000000      0.75000000        1     #  Si     111
         0.00000000      0.25000000      0.75000000        1     #  Si     112
         0.56250000      0.81250000      0.81250000        1     #  Si     113
         0.81250000      0.56250000      0.81250000        1     #  Si     114
         0.31250000      0.06250000      0.81250000        1     #  Si     115
         0.81250000      0.31250000      0.81250000        1     #  Si     116
         0.31250000      0.81250000      0.81250000        1     #  Si     117
         0.56250000      0.56250000      0.81250000        1     #  Si     118
         0.06250000      0.81250000      0.81250000        1     #  Si     119
         0.81250000      0.06250000      0.81250000        1     #  Si     120
         0.56250000      0.31250000      0.81250000        1     #  Si     121
         0.31250000      0.56250000      0.81250000        1     #  Si     122
         0.56250000      0.06250000      0.81250000        1     #  Si     123
         0.06250000      0.56250000      0.81250000        1     #  Si     124
         0.31250000      0.31250000      0.81250000        1     #  Si     125
         0.06250000      0.06250000      0.81250000        1     #  Si     126
         0.81250000      0.81250000      0.81250000        1     #  Si     127
         0.06250000      0.31250000      0.81250000        1     #  Si     128
%endblock AtomicCoordinatesAndAtomicSpecies

StructureSource               Rede

#------------------------------------------------
# Energy cutoff, bands,  and Brillouin mesh
#------------------------------------------------

PWEnergyCutoff                   8.0000      hartree

NumberOfEigenStates                 264

%block kgrid_Monkhorst_Pack
               2       0       0       0.500000
               0       2       0       0.500000
               0       0       2       0.500000
%endblock kgrid_Monkhorst_Pack


#------------------------------------------------
# Active options
#------------------------------------------------

MD.TypeOfRun                  ONE           # ONE,EPILBF,MICRO,LANG,LBFSYM,VCSLNG,VCSLBF,RSTRT,EPILNG

MD.PotentialModel             KEATNG        # KEATNG (do not use LENJON,LJCLST) 

UseSymmetry                   .true.        # .true. , .false. 

MD.UseKeatingCorrections      .true.        # .true. , .false. 

MD.CG.UseFixedkplusG          .true.        # .true. , .false. 

TypeOfScfDiag                 PW            # PW,AO,AOJC,AOJCPW

DualApproximation             .true.        #  .true. , .false.

XC.Authors                    CA            # CA, PBE, TBL

Xc.TBL.C                      1.04          # sets Tran-Blaha constant (if negative use calculated)

PrintingLevel                 1             # 1, 2, 3


#------------------------------------------------
# MD Inactive options
#------------------------------------------------

#MD.InitialTemperature        300 K           #
#MD.TargetTemperature         300 K           #
#MD.TargetPressure            0 GPa           #

#MD.NumberOfSteps             10              #
#MD.LengthTimeStep            2.4 fs          #
#MD.FrictionFracInvTimeStep   20.0            #

#MD.CG.Tolerance         0.0001 'har/bohr'    #
#MD.CG.StepMax                0.01 bohr       #
#MD.CG.FixedkplusGTol    0.01 'har/bohr'      #

#%block MD.TargetStress                       #
   0.0 0.0 0.0                                #
   0.0 0.0 0.0                                #
   0.0 0.0 0.0                                #
#%endblock   MD.TargetStress                  #

#MD.CellMass                  10.0            #
#MD.Seed                      76978           #

#------------------------------------------------
# Electronic Structure Inactive options
#------------------------------------------------

#MaxSCFIterations             20              #

#MaxSCFIterations             20              #
#TypeOfPseudoMixing           BROYD1          # BROYD1, BFGS#

#ElectronicTemperature        1000 K          #
#TypeOfPseudopotential        PSEUKB          # PSEUKB

#ScfTolerance                 0.00005         #
#DiagTolerance                0.0001          #
#SymmTolerance                1.0E-5          #
