########################################################################
#                                                                      #
#              cpw2000 cpw.in input file generated by rede             #
#                                                                      #
########################################################################

#------------------------------------------------
# Rede metadata
#------------------------------------------------

%block Rede.Superlattice
                 3     0     0
                 0     3     0
                 0     0     3
%endblock Rede.Superlattice

Rede.NumberOfLatticePlanes        3

Rede.Version                  2.6

Rede.Title             Si_54    3x3x3x   fcc                          

Rede.Date                     17-Dec-20

Rede.Time                     19:51:10

Rede.Name                     Si9_6_@Si_[1,1,-1] 

SystemLabel                   Si9_6_@Si_[1,1,-1] 


#------------------------------------------------
# Crystal structure
#------------------------------------------------

LatticeConstant               10.26310648     bohr

%block LatticeVectors
         2.12132034         0.00000000         0.00000000
         1.06066017         1.83711731         0.00000000
         1.06066017         0.61237244         1.73205081
%endblock LatticeVectors

NumberOfSpecies                1

NumberOfAtoms               54

%block Chemical_Species_Label
     1      14   Si
%endblock Chemical_Species_Label

AtomicCoordinatesFormat     Fractional

%block AtomicCoordinatesAndAtomicSpecies
         0.00000000      0.33333333      0.00000000        1     #  Si       1
         0.66666666      0.33333333      0.00000000        1     #  Si       2
         0.33333333      0.00000000      0.00000000        1     #  Si       3
         0.00000000      0.00000000      0.00000000        1     #  Si       4
         0.00000000      0.66666666      0.00000000        1     #  Si       5
         0.33333333      0.66666666      0.00000000        1     #  Si       6
         0.66666666      0.00000000      0.00000000        1     #  Si       7
         0.33333333      0.33333333      0.00000000        1     #  Si       8
         0.66666666      0.66666666      0.00000000        1     #  Si       9
         0.41666666      0.75000000      0.08333333        1     #  Si      10
         0.75000000      0.75000000      0.08333333        1     #  Si      11
         0.75000000      0.41666666      0.08333333        1     #  Si      12
         0.41666666      0.41666666      0.08333333        1     #  Si      13
         0.08333333      0.75000000      0.08333333        1     #  Si      14
         0.75000000      0.08333333      0.08333333        1     #  Si      15
         0.41666666      0.08333333      0.08333333        1     #  Si      16
         0.08333333      0.41666666      0.08333333        1     #  Si      17
         0.08333333      0.08333333      0.08333333        1     #  Si      18
         0.66666666      0.00000000      0.33333333        1     #  Si      19
         0.66666666      0.66666666      0.33333333        1     #  Si      20
         0.33333333      0.00000000      0.33333333        1     #  Si      21
         0.00000000      0.00000000      0.33333333        1     #  Si      22
         0.33333333      0.33333333      0.33333333        1     #  Si      23
         0.66666666      0.33333333      0.33333333        1     #  Si      24
         0.00000000      0.33333333      0.33333333        1     #  Si      25
         0.00000000      0.66666666      0.33333333        1     #  Si      26
         0.33333333      0.66666666      0.33333333        1     #  Si      27
         0.08333333      0.41666666      0.41666666        1     #  Si      28
         0.75000000      0.75000000      0.41666666        1     #  Si      29
         0.41666666      0.08333333      0.41666666        1     #  Si      30
         0.08333333      0.08333333      0.41666666        1     #  Si      31
         0.41666666      0.41666666      0.41666666        1     #  Si      32
         0.75000000      0.41666666      0.41666666        1     #  Si      33
         0.41666666      0.75000000      0.41666666        1     #  Si      34
         0.08333333      0.75000000      0.41666666        1     #  Si      35
         0.75000000      0.08333333      0.41666666        1     #  Si      36
         0.00000000      0.00000000      0.66666666        1     #  Si      37
         0.33333333      0.00000000      0.66666666        1     #  Si      38
         0.66666666      0.33333333      0.66666666        1     #  Si      39
         0.66666666      0.66666666      0.66666666        1     #  Si      40
         0.00000000      0.33333333      0.66666666        1     #  Si      41
         0.33333333      0.66666666      0.66666666        1     #  Si      42
         0.00000000      0.66666666      0.66666666        1     #  Si      43
         0.66666666      0.00000000      0.66666666        1     #  Si      44
         0.33333333      0.33333333      0.66666666        1     #  Si      45
         0.41666666      0.08333333      0.75000000        1     #  Si      46
         0.75000000      0.75000000      0.75000000        1     #  Si      47
         0.75000000      0.41666666      0.75000000        1     #  Si      48
         0.08333333      0.41666666      0.75000000        1     #  Si      49
         0.41666666      0.75000000      0.75000000        1     #  Si      50
         0.08333333      0.75000000      0.75000000        1     #  Si      51
         0.75000000      0.08333333      0.75000000        1     #  Si      52
         0.41666666      0.41666666      0.75000000        1     #  Si      53
         0.08333333      0.08333333      0.75000000        1     #  Si      54
%endblock AtomicCoordinatesAndAtomicSpecies

StructureSource               Rede

#------------------------------------------------
# Energy cutoff, bands,  and Brillouin mesh
#------------------------------------------------

PWEnergyCutoff                   8.0000      hartree

NumberOfEigenStates                 116

%block kgrid_Monkhorst_Pack
               2       0       0       0.500000
               0       2       0       0.500000
               0       0       2       0.500000
%endblock kgrid_Monkhorst_Pack


#------------------------------------------------
# Active options
#------------------------------------------------

MD.TypeOfRun                  ONE        # ONE,EPILBF,MICRO,LANG,LBFSYM,VCSLNG,VCSLBF,RSTRT,EPILNG

MD.PotentialModel             KEATNG        # KEATNG (do not use LENJON,LJCLST) 

UseSymmetry                   .true.        # .true. , .false. 

MD.UseKeatingCorrections      .true.        # .true. , .false. 

MD.CG.UseFixedkplusG          .true.        # .true. , .false. 

TypeOfScfDiag                 PW            # PW,AO,AOJC,AOJCPW

DualApproximation             .true.        #  .true. , .false.

XC.Authors                    CA            # CA, PBE, TBL

Xc.TBL.C                      1.04          # sets Tran-Blaha constant (if negative use calculated)

PrintingLevel                 1             # 1, 2, 3


#------------------------------------------------
# MD Inactive options
#------------------------------------------------

#MD.InitialTemperature        300 K           #
#MD.TargetTemperature         300 K           #
#MD.TargetPressure            0 GPa           #

#MD.NumberOfSteps             10              #
#MD.LengthTimeStep            2.4 fs          #
#MD.FrictionFracInvTimeStep   20.0            #

#MD.CG.Tolerance         0.0001 'har/bohr'    #
#MD.CG.StepMax                0.01 bohr       #
#MD.CG.FixedkplusGTol    0.01 'har/bohr'      #

#%block MD.TargetStress                       #
   0.0 0.0 0.0                                #
   0.0 0.0 0.0                                #
   0.0 0.0 0.0                                #
#%endblock   MD.TargetStress                  #

#MD.CellMass                  10.0            #
#MD.Seed                      76978           #

#------------------------------------------------
# Electronic Structure Inactive options
#------------------------------------------------

#MaxSCFIterations             20              #

#MaxSCFIterations             20              #
#TypeOfPseudoMixing           BROYD1          # BROYD1, BFGS#

#ElectronicTemperature        1000 K          #
#TypeOfPseudopotential        PSEUKB          # PSEUKB

#ScfTolerance                 0.00005         #
#DiagTolerance                0.0001          #
#SymmTolerance                1.0E-5          #
