########################################################################
#                                                                      #
#      cpw.in input file generated by gen_PW                           #
#                                                                      #
########################################################################

SystemLabel                   geta-Ga_2O_3


#------------------------------------------------
# Crystal structure
#------------------------------------------------

LatticeConstant                1.00000000     bohr

%block LatticeVectors
        11.54050000        -2.86950000         0.00000000
        11.54050000         2.86950000         0.00000000
        -2.61918220         0.00000000        10.63934836
%endblock LatticeVectors

NumberOfSpecies                2

NumberOfAtoms               10

%block Chemical_Species_Label
     1      31   Ga
     2       8   O
%endblock Chemical_Species_Label

AtomicCoordinatesFormat     Fractional

%block AtomicCoordinatesAndAtomicSpecies
         0.09050000      0.09050000     -0.20540000        1     #  Ga       1
        -0.09050000     -0.09050000      0.20540000        1     #  Ga       2
        -0.34130000     -0.34130000      0.31400000        1     #  Ga       3
         0.34130000      0.34130000     -0.31400000        1     #  Ga       4
         0.16450000      0.16450000      0.10980000        2     #  O        1
        -0.16450000     -0.16450000     -0.10980000        2     #  O        2
         0.17330000      0.17330000     -0.43680000        2     #  O        3
        -0.17330000     -0.17330000      0.43680000        2     #  O        4
         0.49590000      0.49590000      0.25660000        2     #  O        5
        -0.49590000     -0.49590000     -0.25660000        2     #  O        6
%endblock AtomicCoordinatesAndAtomicSpecies

StructureSource               https://aflowlib.org/prototype-encyclopedia/A2B3_mC20_12_2i_3i-001/

#------------------------------------------------
# Energy cutoff, bands,  and Brillouin mesh
#------------------------------------------------

PWEnergyCutoff                  40.0000      hartree

NumberOfEigenStates                  30

%block kgrid_Monkhorst_Pack
               2       0       0       0.500000
               0       4       0       0.500000
               0       0       4       0.500000
%endblock kgrid_Monkhorst_Pack


#------------------------------------------------
# Active options
#------------------------------------------------

MD.TypeOfRun                  ONE           # ONE,EPILBF,MICRO,LANG,LBFSYM,VCSLNG,VCSLBF,RSTRT

UseSymmetry                   .true.        # .true. , .false.

MD.UseKeatingCorrections      .false.       # .true. , .false.

MD.UseFixedkplusG             .true.        # .true. , .false.

TypeOfScfDiag                 PW            # PW,AO,AOJC,AOJCPW

DualApproximation             .true.        #  .true. , .false.

XC.Authors                    CA            # CA, PBE, TBL

Xc.TBL.C                      1.04          # sets Tran-Blaha constant (if negative use calculated)

PrintingLevel                 2              # 1, 2, 3


#------------------------------------------------
# MD Inactive options
#------------------------------------------------

#MD.InitialTemperature        300 K           #
#MD.TargetTemperature         300 K           #
#MD.TargetPressure            0 GPa           #

#MD.NumberOfSteps             10              #
#MD.LengthTimeStep            2.4 fs          #
#MD.FrictionFracInvTimeStep   20.0            #

#MD.CG.Tolerance         0.0001 'har/bohr'    #
#MD.CG.StepMax                0.01 bohr       #
#MD.CG.FixedkplusGTol    0.01 'har/bohr'      #

#%block MD.TargetStress                       #
   0.0 0.0 0.0                                #
   0.0 0.0 0.0                                #
   0.0 0.0 0.0                                #
#%endblock   MD.TargetStress                  #

#MD.CellMass                  10.0            #
#MD.Seed                      76978           #

#------------------------------------------------
# Electronic Structure Inactive options
#------------------------------------------------

#MaxSCFIterations             20              #

#MaxSCFIterations             20              #
#TypeOfPseudoMixing           BROYD1          # BROYD1, BFGS#

#ElectronicTemperature        1000 K          #
#TypeOfPseudopotential        PSEUKB          # PSEUKB

#ScfTolerance                 0.00005         #
#DiagTolerance                0.0001          #
#SymmTolerance                1.0E-5          #
