########################################################################
#                                                                      #
#      cpw.in input file generated by hand                             #
#                                                                      #
########################################################################

SystemLabel                        Al2O3 Corundum


#------------------------------------------------
# Crystal structure
#------------------------------------------------

LatticeConstant                5.19600000     bohr

%block LatticeVectors
        -0.86602540        -0.50000000        -1.58000000
         0.00000000         1.00000000        -1.58000000
         0.86602540        -0.50000000        -1.58000000
%endblock LatticeVectors

NumberOfSpecies                2

NumberOfAtoms               10

%block Chemical_Species_Label
     1      13   Al
     2       8   O
%endblock Chemical_Species_Label

AtomicCoordinatesFormat     Fractional

%block AtomicCoordinatesAndAtomicSpecies
         0.35220000      0.35220000      0.35220000        1     #  Al       1
         0.14780000      0.14780000      0.14780000        1     #  Al       2
        -0.35220000     -0.35220000     -0.35220000        1     #  Al       3
        -0.14780000     -0.14780000     -0.14780000        1     #  Al       4
        -0.05640000      0.55640000      0.25000000        2     #  O        1
         0.25000000     -0.05640000      0.55640000        2     #  O        2
         0.55640000      0.25000000     -0.05640000        2     #  O        3
         0.05640000     -0.55640000     -0.25000000        2     #  O        4
        -0.25000000      0.05640000     -0.55640000        2     #  O        5
        -0.55640000     -0.25000000      0.05640000        2     #  O        6
%endblock AtomicCoordinatesAndAtomicSpecies

StructureSource               https://www.atomic-scale-physics.de/lattice/struk/d5_1.html

#------------------------------------------------
# Energy cutoff, bands,  and Brillouin mesh
#------------------------------------------------

PWEnergyCutoff                  36.0000      hartree

NumberOfEigenStates                  30

%block kgrid_Monkhorst_Pack
               2       0       0       0.500000
               0       2       0       0.500000
               0       0       2       0.500000
%endblock kgrid_Monkhorst_Pack


#------------------------------------------------
# Active options
#------------------------------------------------

MD.TypeOfRun                  ONE           # ONE,EPILBF,MICRO,LANG,LBFSYM,VCSLNG,VCSLBF,RSTRT

UseSymmetry                   .true.        # .true. , .false.

MD.UseKeatingCorrections      .false.       # .true. , .false.

MD.UseFixedkplusG             .true.        # .true. , .false.

TypeOfScfDiag                 PW            # PW,AO,AOJC,AOJCPW

DualApproximation             .true.         #  .true. , .false.

XC.Authors                    CA             # CA, PBE, TBL

Xc.TBL.C                      1.04            # sets Tran-Blaha constant (if negative use calculated)

PrintingLevel                 2              # 1, 2, 3


#------------------------------------------------
# MD Inactive options
#------------------------------------------------

#MD.InitialTemperature        300 K           #
#MD.TargetTemperature         300 K           #
#MD.TargetPressure            0 GPa           #

#MD.NumberOfSteps             10              #
#MD.LengthTimeStep            2.4 fs          #
#MD.FrictionFracInvTimeStep   20.0            #

#MD.CG.Tolerance         0.0001 'har/bohr'  #
#MD.CG.StepMax                0.01 bohr       #
#MD.CG.FixedkplusGTol    0.01 'har/bohr'    #

#%block MD.TargetStress                       #
   0.0 0.0 0.0                                #
   0.0 0.0 0.0                                #
   0.0 0.0 0.0                                #
#%endblock   MD.TargetStress                  #

#MD.CellMass                  10.0            #
#MD.Seed                      76978           #

#------------------------------------------------
# Electronic Structure Inactive options
#------------------------------------------------

#MaxSCFIterations             20              #

#MaxSCFIterations             20              #
#TypeOfPseudoMixing           BROYD1          # BROYD1, BFGS#

#ElectronicTemperature        1000 K          #
#TypeOfPseudopotential        PSEUKB          # PSEUKB

#ScfTolerance                 0.00005         #
#DiagTolerance                0.0001          #
#SymmTolerance                1.0E-5          #
