########################################################################
#                                                                      #
#      cpw.in input file generated by hand                             #
#                                                                      #
########################################################################

SystemLabel                     alpha  F_2  conventional cell


#------------------------------------------------
# Crystal structure
#------------------------------------------------

LatticeConstant               1.88973     bohr

%block LatticeVectors
   6.060753  0.000000 -0.716396
   0.000000  3.655484  0.000000
   0.000000  0.000000  6.887938
%endblock LatticeVectors

NumberOfSpecies                1

NumberOfAtoms                8

%block Chemical_Species_Label
     1       9    F
%endblock Chemical_Species_Label

AtomicCoordinatesFormat     Fractional

%block AtomicCoordinatesAndAtomicSpecies
       0.745053    0.169032    0.905352    1     #   F       1
       0.254947    0.169032    0.594648    1     #   F       2
       0.254947    0.830968    0.094648    1     #   F       3
       0.745053    0.830968    0.405352    1     #   F       4
       0.245053    0.669032    0.905352    1     #   F       5
       0.754947    0.669032    0.594648    1     #   F       6
       0.754947    0.330968    0.094648    1     #   F       7
       0.245053    0.330968    0.405352    1     #   F       8
%endblock AtomicCoordinatesAndAtomicSpecies

StructureSource               experimental

#------------------------------------------------
# Energy cutoff, bands,  and Brillouin mesh
#------------------------------------------------

PWEnergyCutoff                  80.0000      hartree

NumberOfEigenStates                  40

%block kgrid_Monkhorst_Pack
               2       0       0       0.500000
               0       2       0       0.500000
               0       0       2       0.500000
%endblock kgrid_Monkhorst_Pack


#------------------------------------------------
# Active options
#------------------------------------------------

MD.TypeOfRun                  ONE           # ONE,EPILBF,MICRO,LANG,LBFSYM,VCSLNG,VCSLBF,RSTRT

UseSymmetry                   .true.        # .true. , .false.

MD.UseKeatingCorrections      .false.       # .true. , .false.

MD.UseFixedkplusG             .true.        # .true. , .false.

TypeOfScfDiag                 PW            # PW,AO,AOJC,AOJCPW

DualApproximation             .false.       #  .true. , .false.

XC.Authors                    CA            # CA, PBE, TBL

Xc.TBL.C                      1.04          # sets Tran-Blaha constant (if negative use calculated)

PrintingLevel                 2             # 1, 2, 3


#------------------------------------------------
# MD Inactive options
#------------------------------------------------

#MD.InitialTemperature        300 K           #
#MD.TargetTemperature         300 K           #
#MD.TargetPressure            0 GPa           #

#MD.NumberOfSteps             10              #
#MD.LengthTimeStep            2.4 fs          #
#MD.FrictionFracInvTimeStep   20.0            #

#MD.CG.Tolerance         0.0001 'har/bohr'    #
#MD.CG.StepMax                0.01 bohr       #
#MD.CG.FixedkplusGTol    0.01 'har/bohr'      #

#%block MD.TargetStress                       #
   0.0 0.0 0.0                                #
   0.0 0.0 0.0                                #
   0.0 0.0 0.0                                #
#%endblock   MD.TargetStress                  #

#MD.CellMass                  10.0            #
#MD.Seed                      76978           #

#------------------------------------------------
# Electronic Structure Inactive options
#------------------------------------------------

#MaxSCFIterations             20              #

#MaxSCFIterations             20              #
#TypeOfPseudoMixing           BROYD1          # BROYD1, BFGS#

#ElectronicTemperature        1000 K          #
#TypeOfPseudopotential        PSEUKB          # PSEUKB

#ScfTolerance                 0.00005         #
#DiagTolerance                0.0001          #
#SymmTolerance                1.0E-5          #
