########################################################################
#                                                                      #
#      cpw.in input file generated by hand                             #
#                                                                      #
########################################################################

SystemLabel                       hcp Mg  P63/mmc


#------------------------------------------------
# Crystal structure
#------------------------------------------------

LatticeConstant                1.889730000     bohr

%block LatticeVectors
       0.00000000   6.42250000  12.18450000
       5.21850000   0.00000000  12.18450000
       5.21850000   6.42250000   0.00000000
%endblock LatticeVectors

NumberOfSpecies                1

NumberOfAtoms                 32

%block Chemical_Species_Label
     1      16   S
%endblock Chemical_Species_Label

AtomicCoordinatesFormat     Fractional

%block AtomicCoordinatesAndAtomicSpecies
     0.04880000    0.85440000    0.85640000       1     #  S       1
    -0.04880000   -0.85440000   -0.85640000       1     #  S       2
    -0.25960000    0.85640000    0.85440000       1     #  S       3
     0.25960000   -0.85640000   -0.85440000       1     #  S       4
     0.85640000   -0.25960000    0.04880000       1     #  S       5
    -0.85640000    0.25960000   -0.04880000       1     #  S       6
     0.85440000    0.04880000   -0.25960000       1     #  S       7
    -0.85440000   -0.04880000    0.25960000       1     #  S       8
    -0.67800000    0.83060000    0.73820000       1     #  S       9
     0.67800000   -0.83060000   -0.73820000       1     #  S       10
    -0.39080000    0.73820000    0.83060000       1     #  S       11
     0.39080000   -0.73820000   -0.83060000       1     #  S       12
     0.73820000   -0.39080000   -0.67800000       1     #  S       13
    -0.73820000    0.39080000    0.67800000       1     #  S       14
     0.83060000   -0.67800000   -0.39080000       1     #  S       15
    -0.83060000    0.67800000    0.39080000       1     #  S       16
     0.27660000   -0.26860000    0.68240000       1     #  S       17
    -0.27660000    0.26860000   -0.68240000       1     #  S       18
    -0.19040000    0.68240000   -0.26860000       1     #  S       19
     0.19040000   -0.68240000    0.26860000       1     #  S       20
     0.68240000   -0.19040000    0.27660000       1     #  S       21
    -0.68240000    0.19040000   -0.27660000       1     #  S       22
    -0.26860000    0.27660000   -0.19040000       1     #  S       23
     0.26860000   -0.27660000    0.19040000       1     #  S       24
     0.25010000    0.00790000    0.56450000       1     #  S       25
    -0.25010000   -0.00790000   -0.56450000       1     #  S       26
    -0.32250000    0.56450000    0.00790000       1     #  S       27
     0.32250000   -0.56450000   -0.00790000       1     #  S       28
     0.56450000   -0.32250000    0.25010000       1     #  S       29
    -0.56450000    0.32250000   -0.25010000       1     #  S       30
     0.00790000    0.25010000   -0.32250000       1     #  S       31
    -0.00790000   -0.25010000    0.32250000       1     #  S       32
%endblock AtomicCoordinatesAndAtomicSpecies

StructureSource        https://www.atomic-scale-physics.de/lattice/struk.xmol/a16.pos

#------------------------------------------------
# Energy cutoff, bands,  and Brillouin mesh
#------------------------------------------------

PWEnergyCutoff                 25.0000      hartree

NumberOfEigenStates                 128

%block kgrid_Monkhorst_Pack
               2       0       0       0.500000
               0       2       0       0.500000
               0       0       2       0.500000
%endblock kgrid_Monkhorst_Pack


#------------------------------------------------
# Active options
#------------------------------------------------

MD.TypeOfRun                  ONE           # ONE,EPILBF,MICRO,LANG,LBFSYM,VCSLNG,VCSLBF,RSTRT

UseSymmetry                   .true.        # .true. , .false.

MD.UseKeatingCorrections      .false.       # .true. , .false.

MD.UseFixedkplusG             .false.        # .true. , .false.

TypeOfScfDiag                 PW            # PW,AO,AOJC,AOJCPW

DualApproximation             .true.         #  .true. , .false.

XC.Authors                    CA             # CA, PBE, TBL

Xc.TBL.C                      1.04            # sets Tran-Blaha constant (if negative use calculated)

PrintingLevel                 2              # 1, 2, 3


#------------------------------------------------
# MD Inactive options
#------------------------------------------------

#MD.InitialTemperature        300 K           #
#MD.TargetTemperature         300 K           #
#MD.TargetPressure            0 GPa           #

#MD.NumberOfSteps             10              #
#MD.LengthTimeStep            2.4 fs          #
#MD.FrictionFracInvTimeStep   20.0            #

#MD.CG.Tolerance         0.0001 'har/bohr'  #
#MD.CG.StepMax                0.01 bohr       #
#MD.CG.FixedkplusGTol    0.01 'har/bohr'    #

#%block MD.TargetStress                       #
   0.0 0.0 0.0                                #
   0.0 0.0 0.0                                #
   0.0 0.0 0.0                                #
#%endblock   MD.TargetStress                  #

#MD.CellMass                  10.0            #
#MD.Seed                      76978           #

#------------------------------------------------
# Electronic Structure Inactive options
#------------------------------------------------

#MaxSCFIterations             20              #

#MaxSCFIterations             20              #
#TypeOfPseudoMixing           BROYD1          # BROYD1, BFGS#

#ElectronicTemperature        1000 K          #
#TypeOfPseudopotential        PSEUKB          # PSEUKB

#ScfTolerance                 0.00005         #
#DiagTolerance                0.0001          #
#SymmTolerance                1.0E-5          #
