########################################################################
#                                                                      #
#      cpw.in input file generated by hand                             #
#                                                                      #
########################################################################

SystemLabel                  Manganese  A12


#------------------------------------------------
# Crystal structure
#------------------------------------------------

LatticeConstant               16.8400000     bohr

%block LatticeVectors
        -0.50000000         0.50000000         0.50000000
         0.50000000        -0.50000000         0.50000000
         0.50000000         0.50000000        -0.50000000
%endblock LatticeVectors

NumberOfSpecies                1

NumberOfAtoms                29

%block Chemical_Species_Label
     1      25   Mn
%endblock Chemical_Species_Label

AtomicCoordinatesFormat     Fractional

%block AtomicCoordinatesAndAtomicSpecies
    0.00000000    0.00000000    0.00000000        1     #  Mn       1
    0.63574000    0.63574000    0.63574000        1     #  Mn       2
   -0.63574000    0.00000000    0.00000000        1     #  Mn       3
    0.00000000   -0.63574000    0.00000000        1     #  Mn       4
    0.00000000    0.00000000   -0.63574000        1     #  Mn       5
    0.39163000    0.39163000    0.71412000        1     #  Mn       6
   -0.32249000   -0.32249000   -0.71412000        1     #  Mn       7
    0.32249000   -0.39163000    0.00000000        1     #  Mn       8
   -0.39163000    0.32249000    0.00000000        1     #  Mn       9
    0.71412000    0.39163000    0.39163000        1     #  Mn       10
   -0.71412000   -0.32249000   -0.32249000        1     #  Mn       11
    0.00000000    0.32249000   -0.39163000        1     #  Mn       12
    0.00000000   -0.39163000    0.32249000        1     #  Mn       13
    0.39163000    0.71412000    0.39163000        1     #  Mn       14
   -0.32249000   -0.71412000   -0.32249000        1     #  Mn       15
   -0.39163000    0.00000000    0.32249000        1     #  Mn       16
    0.32249000    0.00000000   -0.39163000        1     #  Mn       17
    0.37152000    0.37152000    0.17916000        1     #  Mn       18
    0.19236000    0.19236000   -0.17916000        1     #  Mn       19
   -0.19236000   -0.37152000    0.00000000        1     #  Mn       20
   -0.37152000   -0.19236000    0.00000000        1     #  Mn       21
    0.17916000    0.37152000    0.37152000        1     #  Mn       22
   -0.17916000    0.19236000    0.19236000        1     #  Mn       23
    0.00000000   -0.19236000   -0.37152000        1     #  Mn       24
    0.00000000   -0.37152000   -0.19236000        1     #  Mn       25
    0.37152000    0.17916000    0.37152000        1     #  Mn       26
    0.19236000   -0.17916000    0.19236000        1     #  Mn       27
   -0.37152000    0.00000000   -0.19236000        1     #  Mn       28
   -0.19236000    0.00000000   -0.37152000        1     #  Mn       29
%endblock AtomicCoordinatesAndAtomicSpecies

StructureSource           https://www.atomic-scale-physics.de/lattice/struk.xmol/a12.pos

#------------------------------------------------
# Energy cutoff, bands,  and Brillouin mesh
#------------------------------------------------

PWEnergyCutoff                   50.0000      hartree

NumberOfEigenStates                 130

%block kgrid_Monkhorst_Pack
               4       0       0       0.500000
               0       4       0       0.500000
               0       0       4       0.500000
%endblock kgrid_Monkhorst_Pack

ElectronicTemperature        300 K          #

StructureSource      https://www.webelements.com/vanadium/crystal_structure.html


#------------------------------------------------
# Active options
#------------------------------------------------

MD.TypeOfRun                  ONE           # ONE,EPILBF,MICRO,LANG,LBFSYM,VCSLNG,VCSLBF,RSTRT

UseSymmetry                   .true.        # .true. , .false.

MD.UseKeatingCorrections      .false.       # .true. , .false.

MD.UseFixedkplusG             .true.        # .true. , .false.

TypeOfScfDiag                 PW            # PW,AO,AOJC,AOJCPW

DualApproximation             .true.        #  .true. , .false.

XC.Authors                    CA            # CA, PBE, TBL

Xc.TBL.C                      1.04          # sets Tran-Blaha constant (if negative use calculated)

PrintingLevel                 2              # 1, 2, 3


#------------------------------------------------
# MD Inactive options
#------------------------------------------------

#MD.InitialTemperature        300 K           #
#MD.TargetTemperature         300 K           #
#MD.TargetPressure            0 GPa           #

#MD.NumberOfSteps             10              #
#MD.LengthTimeStep            2.4 fs          #
#MD.FrictionFracInvTimeStep   20.0            #

#MD.CG.Tolerance         0.0001 'har/bohr'    #
#MD.CG.StepMax                0.01 bohr       #
#MD.CG.FixedkplusGTol    0.01 'har/bohr'      #

#%block MD.TargetStress                       #
   0.0 0.0 0.0                                #
   0.0 0.0 0.0                                #
   0.0 0.0 0.0                                #
#%endblock   MD.TargetStress                  #

#MD.CellMass                  10.0            #
#MD.Seed                      76978           #

#------------------------------------------------
# Electronic Structure Inactive options
#------------------------------------------------

#MaxSCFIterations             20              #

#MaxSCFIterations             20              #
#TypeOfPseudoMixing           BROYD1          # BROYD1, BFGS#

#TypeOfPseudopotential        PSEUKB          # PSEUKB

#ScfTolerance                 0.00005         #
#DiagTolerance                0.0001          #
#SymmTolerance                1.0E-5          #
