########################################################################
#                                                                      #
#      cpw.in input file generated by gen_PW                           #
#                                                                      #
########################################################################

SystemLabel                   Si3N4


#------------------------------------------------
# Crystal structure
#------------------------------------------------

LatticeConstant               14.47600000     bohr

%block LatticeVectors
         0.50000000        -0.86602540         0.00000000
         0.50000000         0.86602540         0.00000000
         0.00000000         0.00000000         0.38187345
%endblock LatticeVectors

NumberOfSpecies                2

NumberOfAtoms               14

%block Chemical_Species_Label
     1      14   Si
     2       7   N
%endblock Chemical_Species_Label

AtomicCoordinatesFormat     Fractional

%block AtomicCoordinatesAndAtomicSpecies
         0.82513700      0.59389300      0.25000000        1     #  Si       1
         0.23124400      0.82513700      0.75000000        1     #  Si       2
         0.59389300      0.76875600      0.75000000        1     #  Si       3
         0.40610700      0.23124400      0.25000000        1     #  Si       4
         0.76875600      0.17486300      0.25000000        1     #  Si       5
         0.17486300      0.40610700      0.75000000        1     #  Si       6
         0.66666667      0.33333333      0.25000000        2     #  N        1
         0.33333333      0.66666667      0.75000000        2     #  N        2
         0.67005700      0.70073600      0.25000000        2     #  N        3
         0.96932100      0.67005700      0.75000000        2     #  N        4
         0.70073600      0.03067900      0.75000000        2     #  N        5
         0.29926400      0.96932100      0.25000000        2     #  N        6
         0.32994300      0.29926400      0.75000000        2     #  N        7
         0.03067900      0.32994300      0.25000000        2     #  N        8
%endblock AtomicCoordinatesAndAtomicSpecies

StructureSource               https://materialsproject.org/materials/mp-988/

#------------------------------------------------
# Energy cutoff, bands,  and Brillouin mesh
#------------------------------------------------

PWEnergyCutoff                  40.0000      hartree

NumberOfEigenStates                  48

%block kgrid_Monkhorst_Pack
               2       0       0       0.500000
               0       2       0       0.500000
               0       0       2       0.500000
%endblock kgrid_Monkhorst_Pack


#------------------------------------------------
# Active options
#------------------------------------------------

MD.TypeOfRun                  ONE           # ONE,EPILBF,MICRO,LANG,LBFSYM,VCSLNG,VCSLBF,RSTRT

UseSymmetry                   .true.        # .true. , .false.

MD.UseKeatingCorrections      .false.       # .true. , .false.

MD.UseFixedkplusG             .true.        # .true. , .false.

TypeOfScfDiag                 PW            # PW,AO,AOJC,AOJCPW

DualApproximation             .true.        #  .true. , .false.

XC.Authors                    CA            # CA, PBE, TBL

Xc.TBL.C                      1.04          # sets Tran-Blaha constant (if negative use calculated)

PrintingLevel                 2              # 1, 2, 3


#------------------------------------------------
# MD Inactive options
#------------------------------------------------

#MD.InitialTemperature        300 K           #
#MD.TargetTemperature         300 K           #
#MD.TargetPressure            0 GPa           #

#MD.NumberOfSteps             10              #
#MD.LengthTimeStep            2.4 fs          #
#MD.FrictionFracInvTimeStep   20.0            #

#MD.CG.Tolerance         0.0001 'har/bohr'    #
#MD.CG.StepMax                0.01 bohr       #
#MD.CG.FixedkplusGTol    0.01 'har/bohr'      #

#%block MD.TargetStress                       #
   0.0 0.0 0.0                                #
   0.0 0.0 0.0                                #
   0.0 0.0 0.0                                #
#%endblock   MD.TargetStress                  #

#MD.CellMass                  10.0            #
#MD.Seed                      76978           #

#------------------------------------------------
# Electronic Structure Inactive options
#------------------------------------------------

#MaxSCFIterations             20              #

#MaxSCFIterations             20              #
#TypeOfPseudoMixing           BROYD1          # BROYD1, BFGS#

#ElectronicTemperature        1000 K          #
#TypeOfPseudopotential        PSEUKB          # PSEUKB

#ScfTolerance                 0.00005         #
#DiagTolerance                0.0001          #
#SymmTolerance                1.0E-5          #
