########################################################################
#                                                                      #
#      cpw.in input file generated by hand                             #
#                                                                      #
########################################################################

SystemLabel                       C36-CGCL


#------------------------------------------------
# Crystal structure
#------------------------------------------------

LatticeConstant               12.30000000     bohr

%block LatticeVectors
         0.86602540         0.50000000         0.55550000
        -0.86602540         0.50000000         0.55550000
         0.00000000        -1.00000000         0.55550000
%endblock LatticeVectors

NumberOfSpecies                1

NumberOfAtoms               36

%block Chemical_Species_Label
     1       6   C
%endblock Chemical_Species_Label

AtomicCoordinatesFormat     Fractional

%block AtomicCoordinatesAndAtomicSpecies
         0.35400000      0.22600000      0.09800000        1     #  C        1
         0.22600000      0.09800000      0.35400000        1     #  C        2
         0.09800000      0.35400000      0.22600000        1     #  C        3
         0.35400000      0.09800000      0.22600000        1     #  C        4
         0.09800000      0.22600000      0.35400000        1     #  C        5
         0.22600000      0.35400000      0.09800000        1     #  C        6
         0.34300000      0.13000000     -0.08300000        1     #  C        7
         0.13000000     -0.08300000      0.34300000        1     #  C        8
        -0.08300000      0.34300000      0.13000000        1     #  C        9
         0.34300000     -0.08300000      0.13000000        1     #  C       10
        -0.08300000      0.13000000      0.34300000        1     #  C       11
         0.13000000      0.34300000     -0.08300000        1     #  C       12
         0.32700000     -0.06600000     -0.06600000        1     #  C       13
        -0.06600000     -0.06600000      0.32700000        1     #  C       14
        -0.06600000      0.32700000     -0.06600000        1     #  C       15
        -0.19700000      0.19600000      0.19600000        1     #  C       16
         0.19600000      0.19600000     -0.19700000        1     #  C       17
         0.19600000     -0.19700000      0.19600000        1     #  C       18
        -0.35400000     -0.22600000     -0.09800000        1     #  C       19
        -0.22600000     -0.09800000     -0.35400000        1     #  C       20
        -0.09800000     -0.35400000     -0.22600000        1     #  C       21
        -0.35400000     -0.09800000     -0.22600000        1     #  C       22
        -0.09800000     -0.22600000     -0.35400000        1     #  C       23
        -0.22600000     -0.35400000     -0.09800000        1     #  C       24
        -0.34300000     -0.13000000      0.08300000        1     #  C       25
        -0.13000000      0.08300000     -0.34300000        1     #  C       26
         0.08300000     -0.34300000     -0.13000000        1     #  C       27
        -0.34300000      0.08300000     -0.13000000        1     #  C       28
         0.08300000     -0.13000000     -0.34300000        1     #  C       29
        -0.13000000     -0.34300000      0.08300000        1     #  C       30
        -0.32700000      0.06600000      0.06600000        1     #  C       31
         0.06600000      0.06600000     -0.32700000        1     #  C       32
         0.06600000     -0.32700000      0.06600000        1     #  C       33
         0.19700000     -0.19600000     -0.19600000        1     #  C       34
        -0.19600000     -0.19600000      0.19700000        1     #  C       35
        -0.19600000      0.19700000     -0.19600000        1     #  C       36
%endblock AtomicCoordinatesAndAtomicSpecies

StructureSource               invented

#------------------------------------------------
# Energy cutoff, bands,  and Brillouin mesh
#------------------------------------------------

PWEnergyCutoff                  36.0000      hartree

NumberOfEigenStates                  80

%block kgrid_Monkhorst_Pack
               3       0       0       0.500000
               0       3       0       0.500000
               0       0       3       0.500000
%endblock kgrid_Monkhorst_Pack


#------------------------------------------------
# Active options
#------------------------------------------------

MD.TypeOfRun                  ONE           # ONE,EPILBF,MICRO,LANG,LBFSYM,VCSLNG,VCSLBF,RSTRT

UseSymmetry                   .true.        # .true. , .false.

MD.UseKeatingCorrections      .false.       # .true. , .false.

MD.UseFixedkplusG             .true.        # .true. , .false.

TypeOfScfDiag                 PW            # PW,AO,AOJC,AOJCPW

DualApproximation             .true.         #  .true. , .false.

XC.Authors                    CA             # CA, PBE, TBL

Xc.TBL.C                      1.04            # sets Tran-Blaha constant (if negative use calculated)

PrintingLevel                 2              # 1, 2, 3


#------------------------------------------------
# MD Inactive options
#------------------------------------------------

#MD.InitialTemperature        300 K           #
#MD.TargetTemperature         300 K           #
#MD.TargetPressure            0 GPa           #

#MD.NumberOfSteps             10              #
#MD.LengthTimeStep            2.4 fs          #
#MD.FrictionFracInvTimeStep   20.0            #

#MD.CG.Tolerance         0.0001 'har/bohr'  #
#MD.CG.StepMax                0.01 bohr       #
#MD.CG.FixedkplusGTol    0.01 'har/bohr'    #

#%block MD.TargetStress                       #
   0.0 0.0 0.0                                #
   0.0 0.0 0.0                                #
   0.0 0.0 0.0                                #
#%endblock   MD.TargetStress                  #

#MD.CellMass                  10.0            #
#MD.Seed                      76978           #

#------------------------------------------------
# Electronic Structure Inactive options
#------------------------------------------------

#MaxSCFIterations             20              #

#MaxSCFIterations             20              #
#TypeOfPseudoMixing           BROYD1          # BROYD1, BFGS#

#ElectronicTemperature        1000 K          #
#TypeOfPseudopotential        PSEUKB          # PSEUKB

#ScfTolerance                 0.00005         #
#DiagTolerance                0.0001          #
#SymmTolerance                1.0E-5          #
