########################################################################
#                                                                      #
#      cpw.in input file generated by hand                             #
#                                                                      #
########################################################################

SystemLabel                       Octonitrocubane


#------------------------------------------------
# Crystal structure
#------------------------------------------------

LatticeConstant                1.00000000     bohr

%block LatticeVectors
        -1.68772055         8.35212000        11.96179227
        -1.68772055        -8.35212000        11.96179227
        26.31236728         0.00000000         0.00000000
%endblock LatticeVectors

NumberOfSpecies                3

NumberOfAtoms               64

%block Chemical_Species_Label
     1       6   C
     2       7   N
     3       8   O
%endblock Chemical_Species_Label

AtomicCoordinatesFormat     Fractional

%block AtomicCoordinatesAndAtomicSpecies
         0.06755000     -0.22965000      0.30285000        1     #  C        1
         0.22965000     -0.06755000      0.19715000        1     #  C        2
        -0.06755000      0.22965000     -0.30285000        1     #  C        3
        -0.22965000      0.06755000     -0.19715000        1     #  C        4
         0.27927000     -0.26633000      0.30666000        1     #  C        5
         0.26633000     -0.27927000      0.19334000        1     #  C        6
        -0.27927000      0.26633000     -0.30666000        1     #  C        7
        -0.26633000      0.27927000     -0.19334000        1     #  C        8
         0.23934000     -0.05426000      0.30998000        1     #  C        9
         0.05426000     -0.23934000      0.19002000        1     #  C       10
        -0.23934000      0.05426000     -0.30998000        1     #  C       11
        -0.05426000      0.23934000     -0.19002000        1     #  C       12
         0.02777000     -0.01703000      0.30643000        1     #  C       13
         0.01703000     -0.02777000      0.19357000        1     #  C       14
        -0.02777000      0.01703000     -0.30643000        1     #  C       15
        -0.01703000      0.02777000     -0.19357000        1     #  C       16
        -0.02609000     -0.31729000      0.35834000        2     #  N        1
         0.31729000      0.02609000      0.14166000        2     #  N        2
         0.02609000      0.31729000     -0.35834000        2     #  N        3
        -0.31729000     -0.02609000     -0.14166000        2     #  N        4
         0.42040000     -0.40260000      0.36581000        2     #  N        5
         0.40260000     -0.42040000      0.13419000        2     #  N        6
        -0.42040000      0.40260000     -0.36581000        2     #  N        7
        -0.40260000      0.42040000     -0.13419000        2     #  N        8
         0.34315000      0.04655000      0.37480000        2     #  N        9
        -0.04655000     -0.34315000      0.12520000        2     #  N       10
        -0.34315000     -0.04655000     -0.37480000        2     #  N       11
         0.04655000      0.34315000     -0.12520000        2     #  N       12
        -0.09903000      0.13317000      0.36599000        2     #  N       13
        -0.13317000      0.09903000      0.13401000        2     #  N       14
         0.09903000     -0.13317000     -0.36599000        2     #  N       15
         0.13317000     -0.09903000     -0.13401000        2     #  N       16
        -0.18463000     -0.29323000      0.32972000        3     #  O        1
         0.29323000      0.18463000      0.17028000        3     #  O        2
         0.18463000      0.29323000     -0.32972000        3     #  O        3
        -0.29323000     -0.18463000     -0.17028000        3     #  O        4
         0.06213000     -0.40007000      0.42523000        3     #  O        5
         0.40007000     -0.06213000      0.07477000        3     #  O        6
        -0.06213000      0.40007000     -0.42523000        3     #  O        7
        -0.40007000      0.06213000     -0.07477000        3     #  O        8
         0.44063000     -0.56137000      0.33774000        3     #  O        9
         0.56137000     -0.44063000      0.16226000        3     #  O       10
        -0.44063000      0.56137000     -0.33774000        3     #  O       11
        -0.56137000      0.44063000     -0.16226000        3     #  O       12
         0.49678000     -0.34442000      0.43495000        3     #  O       13
         0.34442000     -0.49678000      0.06505000        3     #  O       14
        -0.49678000      0.34442000     -0.43495000        3     #  O       15
        -0.34442000      0.49678000     -0.06505000        3     #  O       16
         0.49459000      0.02299000      0.35118000        3     #  O       17
        -0.02299000     -0.49459000      0.14882000        3     #  O       18
        -0.49459000     -0.02299000     -0.35118000        3     #  O       19
         0.02299000      0.49459000     -0.14882000        3     #  O       20
         0.26872000      0.13792000      0.44333000        3     #  O       21
        -0.13792000     -0.26872000      0.05667000        3     #  O       22
        -0.26872000     -0.13792000     -0.44333000        3     #  O       23
         0.13792000      0.26872000     -0.05667000        3     #  O       24
        -0.12697000      0.28603000      0.34176000        3     #  O       25
        -0.28603000      0.12697000      0.15824000        3     #  O       26
         0.12697000     -0.28603000     -0.34176000        3     #  O       27
         0.28603000     -0.12697000     -0.15824000        3     #  O       28
        -0.15633000      0.09027000      0.43303000        3     #  O       29
        -0.09027000      0.15633000      0.06697000        3     #  O       30
         0.15633000     -0.09027000     -0.43303000        3     #  O       31
         0.09027000     -0.15633000     -0.06697000        3     #  O       32
%endblock AtomicCoordinatesAndAtomicSpecies

StructureSource               forgotten

#------------------------------------------------
# Energy cutoff, bands,  and Brillouin mesh
#------------------------------------------------

PWEnergyCutoff                   2.0000      hartree

NumberOfEigenStates                 180

%block kgrid_Monkhorst_Pack
               1       0       0       0.000000
               0       1       0       0.000000
               0       0       1       0.000000
%endblock kgrid_Monkhorst_Pack


#------------------------------------------------
# Active options
#------------------------------------------------

MD.TypeOfRun                  ONE           # ONE,EPILBF,MICRO,LANG,LBFSYM,VCSLNG,VCSLBF,RSTRT

UseSymmetry                   .true.        # .true. , .false.

MD.UseKeatingCorrections      .false.       # .true. , .false.

MD.UseFixedkplusG             .true.        # .true. , .false.

TypeOfScfDiag                 PW            # PW,AO,AOJC,AOJCPW

DualApproximation             .true.         #  .true. , .false.

XC.Authors                    CA             # CA, PBE, TBL

Xc.TBL.C                      1.04            # sets Tran-Blaha constant (if negative use calculated)

PrintingLevel                 2              # 1, 2, 3


#------------------------------------------------
# MD Inactive options
#------------------------------------------------

#MD.InitialTemperature        300 K           #
#MD.TargetTemperature         300 K           #
#MD.TargetPressure            0 GPa           #

#MD.NumberOfSteps             10              #
#MD.LengthTimeStep            2.4 fs          #
#MD.FrictionFracInvTimeStep   20.0            #

#MD.CG.Tolerance         0.0001 'har/bohr'  #
#MD.CG.StepMax                0.01 bohr       #
#MD.CG.FixedkplusGTol    0.01 'har/bohr'    #

#%block MD.TargetStress                       #
   0.0 0.0 0.0                                #
   0.0 0.0 0.0                                #
   0.0 0.0 0.0                                #
#%endblock   MD.TargetStress                  #

#MD.CellMass                  10.0            #
#MD.Seed                      76978           #

#------------------------------------------------
# Electronic Structure Inactive options
#------------------------------------------------

#MaxSCFIterations             20              #

#MaxSCFIterations             20              #
#TypeOfPseudoMixing           BROYD1          # BROYD1, BFGS#

#ElectronicTemperature        1000 K          #
#TypeOfPseudopotential        PSEUKB          # PSEUKB

#ScfTolerance                 0.00005         #
#DiagTolerance                0.0001          #
#SymmTolerance                1.0E-5          #
