########################################################################
#                                                                      #
#      cpw.in input file generated by a previous cpw2000 run           #
#                                                                      #
########################################################################
 
SystemLabel                      Na   54 atom liqu
 
 
#------------------------------------------------
# Crystal structure
#------------------------------------------------
 
LatticeConstant                9.70000000     bohr
 
%block LatticeVectors
         0.00000000         2.00000000         2.00000000
         2.00000000         0.00000000         2.00000000
         2.00000000         2.00000000         0.00000000
%endblock LatticeVectors
 
NumberOfSpecies                1
 
NumberOfAtoms               54
 
%block Chemical_Species_Label
     1      11   Na
%endblock Chemical_Species_Label
 
AtomicCoordinatesFormat     Fractional
 
%block AtomicCoordinatesAndAtomicSpecies
        -0.10245000     -0.06891000      0.08725000        1     #  Na       1
         0.01417000     -0.03573000      0.29114000        1     #  Na       2
         0.05789000     -0.06186000      0.51178000        1     #  Na       3
         0.00121000      0.02637000      0.77457000        1     #  Na       4
         0.07922000      0.23822000      0.01205000        1     #  Na       5
         0.07026000      0.18866000      0.47454000        1     #  Na       6
        -0.05106000      0.22771000      0.83561000        1     #  Na       7
        -0.04825000      0.48880000      0.02300000        1     #  Na       8
         0.02920000      0.39800000      0.22103000        1     #  Na       9
        -0.06699000      0.50896000      0.53264000        1     #  Na      10
         0.01684000      0.47793000      0.77351000        1     #  Na      11
         0.08782000      0.70889000      0.05010000        1     #  Na      12
         0.06212000      0.70396000      0.29246000        1     #  Na      13
         0.06556000      0.73280000      0.79484000        1     #  Na      14
         0.25740000     -0.11109000      0.02460000        1     #  Na      15
         0.25550000     -0.01124000      0.23306000        1     #  Na      16
         0.34716000      0.03816000      0.44182000        1     #  Na      17
         0.23391000      0.05505000      0.78623000        1     #  Na      18
         0.30363000      0.20469000      0.02822000        1     #  Na      19
         0.23121000      0.27001000      0.55612000        1     #  Na      20
         0.26351000      0.31704000      0.73112000        1     #  Na      21
         0.27989000      0.47638000      0.03261000        1     #  Na      22
         0.21686000      0.39325000      0.33179000        1     #  Na      23
         0.16840000      0.53241000      0.50048000        1     #  Na      24
         0.25137000      0.54931000      0.69428000        1     #  Na      25
         0.28571000      0.70049000      0.29851000        1     #  Na      26
         0.32840000      0.73195000      0.51607000        1     #  Na      27
         0.32487000      0.75895000      0.74249000        1     #  Na      28
         0.47825000      0.01292000     -0.11642000        1     #  Na      29
         0.54837000      0.03283000      0.19798000        1     #  Na      30
         0.52828000     -0.14984000      0.72762000        1     #  Na      31
         0.65489000      0.20642000     -0.11553000        1     #  Na      32
         0.49313000      0.26975000      0.18345000        1     #  Na      33
         0.51224000      0.15153000      0.58449000        1     #  Na      34
         0.50769000      0.23661000      0.74467000        1     #  Na      35
         0.45020000      0.38600000      0.35787000        1     #  Na      36
         0.53242000      0.48166000      0.48236000        1     #  Na      37
         0.45717000      0.51678000      0.76932000        1     #  Na      38
         0.44542000      0.57736000      0.11381000        1     #  Na      39
         0.52908000      0.75342000      0.21884000        1     #  Na      40
         0.58790000      0.69311000      0.58399000        1     #  Na      41
         0.69141000     -0.07668000      0.39815000        1     #  Na      42
         0.73017000      0.10317000      0.42532000        1     #  Na      43
         0.79570000     -0.06639000      0.73944000        1     #  Na      44
         0.78470000      0.21242000      0.12713000        1     #  Na      45
         0.90154000      0.23883000      0.27134000        1     #  Na      46
         0.78591000      0.15558000      0.56760000        1     #  Na      47
         0.71953000      0.50906000     -0.06612000        1     #  Na      48
         0.68455000      0.47349000      0.22555000        1     #  Na      49
         0.81761000      0.43692000      0.45095000        1     #  Na      50
         0.73354000      0.45162000      0.74502000        1     #  Na      51
         0.71559000      0.77780000     -0.02467000        1     #  Na      52
         0.81617000      0.71699000      0.32292000        1     #  Na      53
         0.85284000      0.71696000      0.57830000        1     #  Na      54
%endblock AtomicCoordinatesAndAtomicSpecies
 
StructureSource               cpw2000
 
#------------------------------------------------
# Energy cutoff, bands,  and Brillouin mesh
#------------------------------------------------
 
PWEnergyCutoff                   6.0000      hartree
 
NumberOfEigenStates                  32
 
%block kgrid_Monkhorst_Pack
               1       0       0       0.000000
               0       1       0       0.000000
               0       0       1       0.000000
%endblock kgrid_Monkhorst_Pack
 
 
#------------------------------------------------
# Active options
#------------------------------------------------
 
MD.TypeOfRun                  ONE           # ONE,EPILBF,MICRO,LANG,LBFSYM,VCSLNG,VCSLBF,RSTRT
 
UseSymmetry                   .true.        # .true. , .false. 
 
MD.UseKeatingCorrections      .false.       # .true. , .false. 
 
MD.UseFixedkplusG             .true.        # .true. , .false. 
 
TypeOfScfDiag                 PW            # PW,AO,AOJC,AOJCPW
 
DualApproximation             .true.         #  .true. , .false.
 
XC.Authors                    CA             # CA, PBE, TBL
 
Xc.TBL.C                      1.04            # sets Tran-Blaha constant (if negative use calculated)
 
PrintingLevel                 2              # 1, 2, 3
 
 
#------------------------------------------------
# MD Inactive options
#------------------------------------------------
 
#MD.InitialTemperature        300 K           #
#MD.TargetTemperature         300 K           #
#MD.TargetPressure            0 GPa           #
 
#MD.NumberOfSteps             10              #
#MD.LengthTimeStep            2.4 fs          #
#MD.FrictionFracInvTimeStep   20.0            #
 
#MD.CG.Tolerance         0.0001 'har/bohr'  #
#MD.CG.StepMax                0.01 bohr       #
#MD.CG.FixedkplusGTol    0.01 'har/bohr'    #
 
#%block MD.TargetStress                       #
   0.0 0.0 0.0                                #
   0.0 0.0 0.0                                #
   0.0 0.0 0.0                                #
#%endblock   MD.TargetStress                  #
 
#MD.CellMass                  10.0            #
#MD.Seed                      76978           #
 
#------------------------------------------------
# Electronic Structure Inactive options
#------------------------------------------------
 
#MaxSCFIterations             20              #
 
#MaxSCFIterations             20              #
#TypeOfPseudoMixing           BROYD1          # BROYD1, BFGS#
 
#ElectronicTemperature        1000 K          #
#TypeOfPseudopotential        PSEUKB          # PSEUKB
 
#ScfTolerance                 0.00005         #
#DiagTolerance                0.0001          #
#SymmTolerance                1.0E-5          #
