########################################################################
#                                                                      #
#      cpw.in input file generated by hand                             #
#                                                                      #
########################################################################

SystemLabel                      C60


#------------------------------------------------
# Crystal structure
#------------------------------------------------

LatticeConstant               27.71000000     bohr

%block LatticeVectors
         0.00000000         0.50000000         0.50000000
         0.50000000         0.00000000         0.50000000
         0.50000000         0.50000000         0.00000000
%endblock LatticeVectors

NumberOfSpecies                1

NumberOfAtoms               60

%block Chemical_Species_Label
     1       6   C
%endblock Chemical_Species_Label

AtomicCoordinatesFormat     Fractional

%block AtomicCoordinatesAndAtomicSpecies
         0.28286600      0.18855300     -0.28286600        1     #  C        1
        -0.02914400      0.18855300      0.22197700        1     #  C        2
        -0.22197700      0.38138600      0.02914400        1     #  C        3
         0.28286600      0.06937600      0.02914400        1     #  C        4
        -0.02914400      0.38138600     -0.28286600        1     #  C        5
         0.18855300      0.28286600     -0.18855300        1     #  C        6
         0.18855300     -0.02914400     -0.38138600        1     #  C        7
         0.38138600     -0.22197700     -0.18855300        1     #  C        8
         0.38138600     -0.02914400     -0.06937600        1     #  C        9
         0.06937600      0.28286600     -0.38138600        1     #  C       10
        -0.28286600     -0.18855300      0.28286600        1     #  C       11
         0.02914400     -0.18855300     -0.22197700        1     #  C       12
         0.22197700     -0.38138600     -0.02914400        1     #  C       13
         0.02914400     -0.38138600      0.28286600        1     #  C       14
        -0.28286600     -0.06937600     -0.02914400        1     #  C       15
        -0.18855300     -0.28286600      0.18855300        1     #  C       16
        -0.18855300      0.02914400      0.38138600        1     #  C       17
        -0.38138600      0.22197700      0.18855300        1     #  C       18
        -0.06937600     -0.28286600      0.38138600        1     #  C       19
        -0.38138600      0.02914400      0.06937600        1     #  C       20
        -0.28286600      0.28286600      0.18855300        1     #  C       21
         0.02914400      0.28286600      0.06937600        1     #  C       22
        -0.28286600     -0.02914400      0.38138600        1     #  C       23
         0.22197700     -0.02914400      0.18855300        1     #  C       24
         0.02914400     -0.22197700      0.38138600        1     #  C       25
        -0.18855300      0.18855300      0.28286600        1     #  C       26
        -0.06937600      0.38138600     -0.02914400        1     #  C       27
        -0.38138600      0.06937600      0.28286600        1     #  C       28
        -0.38138600      0.18855300     -0.02914400        1     #  C       29
        -0.18855300      0.38138600     -0.22197700        1     #  C       30
         0.28286600     -0.28286600     -0.18855300        1     #  C       31
         0.28286600      0.02914400     -0.38138600        1     #  C       32
        -0.02914400     -0.28286600     -0.06937600        1     #  C       33
        -0.22197700      0.02914400     -0.18855300        1     #  C       34
        -0.02914400      0.22197700     -0.38138600        1     #  C       35
         0.18855300     -0.18855300     -0.28286600        1     #  C       36
         0.38138600     -0.06937600     -0.28286600        1     #  C       37
         0.06937600     -0.38138600      0.02914400        1     #  C       38
         0.38138600     -0.18855300      0.02914400        1     #  C       39
         0.18855300     -0.38138600      0.22197700        1     #  C       40
         0.18855300     -0.28286600      0.28286600        1     #  C       41
         0.06937600      0.02914400      0.28286600        1     #  C       42
         0.38138600     -0.28286600     -0.02914400        1     #  C       43
         0.18855300      0.22197700     -0.02914400        1     #  C       44
         0.38138600      0.02914400     -0.22197700        1     #  C       45
         0.28286600     -0.18855300      0.18855300        1     #  C       46
        -0.02914400     -0.06937600      0.38138600        1     #  C       47
         0.28286600     -0.38138600      0.06937600        1     #  C       48
        -0.02914400     -0.38138600      0.18855300        1     #  C       49
        -0.22197700     -0.18855300      0.38138600        1     #  C       50
        -0.18855300      0.28286600     -0.28286600        1     #  C       51
        -0.38138600      0.28286600      0.02914400        1     #  C       52
        -0.06937600     -0.02914400     -0.28286600        1     #  C       53
        -0.18855300     -0.22197700      0.02914400        1     #  C       54
        -0.38138600     -0.02914400      0.22197700        1     #  C       55
        -0.28286600      0.18855300     -0.18855300        1     #  C       56
        -0.28286600      0.38138600     -0.06937600        1     #  C       57
         0.02914400      0.06937600     -0.38138600        1     #  C       58
         0.02914400      0.38138600     -0.18855300        1     #  C       59
         0.22197700      0.18855300     -0.38138600        1     #  C       60
%endblock AtomicCoordinatesAndAtomicSpecies

StructureSource               cpw2000

#------------------------------------------------
# Energy cutoff, bands,  and Brillouin mesh
#------------------------------------------------

PWEnergyCutoff                  32.0000      hartree

NumberOfEigenStates                 140

%block kgrid_Monkhorst_Pack
               1       0       0       0.000000
               0       1       0       0.000000
               0       0       1       0.000000
%endblock kgrid_Monkhorst_Pack


#------------------------------------------------
# Active options
#------------------------------------------------

MD.TypeOfRun                  ONE           # ONE,EPILBF,MICRO,LANG,LBFSYM,VCSLNG,VCSLBF,RSTRT

UseSymmetry                   .true.        # .true. , .false.

MD.UseKeatingCorrections      .false.       # .true. , .false.

MD.UseFixedkplusG             .true.        # .true. , .false.

TypeOfScfDiag                 PW            # PW,AO,AOJC,AOJCPW

DualApproximation             .true.         #  .true. , .false.

XC.Authors                    CA             # CA, PBE, TBL

Xc.TBL.C                      1.04            # sets Tran-Blaha constant (if negative use calculated)

PrintingLevel                 2              # 1, 2, 3


#------------------------------------------------
# MD Inactive options
#------------------------------------------------

#MD.InitialTemperature        300 K           #
#MD.TargetTemperature         300 K           #
#MD.TargetPressure            0 GPa           #

#MD.NumberOfSteps             10              #
#MD.LengthTimeStep            2.4 fs          #
#MD.FrictionFracInvTimeStep   20.0            #

#MD.CG.Tolerance         0.0001 'har/bohr'  #
#MD.CG.StepMax                0.01 bohr       #
#MD.CG.FixedkplusGTol    0.01 'har/bohr'    #

#%block MD.TargetStress                       #
   0.0 0.0 0.0                                #
   0.0 0.0 0.0                                #
   0.0 0.0 0.0                                #
#%endblock   MD.TargetStress                  #

#MD.CellMass                  10.0            #
#MD.Seed                      76978           #

#------------------------------------------------
# Electronic Structure Inactive options
#------------------------------------------------

#MaxSCFIterations             20              #

#MaxSCFIterations             20              #
#TypeOfPseudoMixing           BROYD1          # BROYD1, BFGS#

#ElectronicTemperature        1000 K          #
#TypeOfPseudopotential        PSEUKB          # PSEUKB

#ScfTolerance                 0.00005         #
#DiagTolerance                0.0001          #
#SymmTolerance                1.0E-5          #
