########################################################################
#                                                                      #
#      cpw.in input file                                               #
#                                                                      #
########################################################################
 
 
 
#------------------------------------------------
# Crystal structure
#------------------------------------------------
 
LatticeConstant               9.26310648     bohr
 
%block LatticeVectors
         0.70710678        -1.00000000         0.00000000
         0.70710678         1.00000000         0.00000000
         0.00000000         0.00000000         0.75000000
%endblock LatticeVectors
 
NumberOfSpecies                2
 
NumberOfAtoms                8
 
%block Chemical_Species_Label
     1      14   Si
     2      32   Ge
%endblock Chemical_Species_Label
 
AtomicCoordinatesFormat     Fractional
 
%block AtomicCoordinatesAndAtomicSpecies
         0.50293623      0.49854333      0.00364552        1     #  Si       1
        -0.12435516      0.62691271      0.00403659        1     #  Si       2
         0.00404748     -0.00037219      0.00365769        1     #  Si       3
         0.37455702      0.12804057      0.00364841        1     #  Si       4
        -0.00121224      0.50363303      0.51403196        1     #  Si       5
         0.49955239      0.00289505      0.50360814        2     #  Ge       1
         0.37393041      0.62185397      0.49365659        2     #  Ge       2
        -0.11938596      0.12850528      0.50366535        2     #  Ge       3
%endblock AtomicCoordinatesAndAtomicSpecies
 
StructureSource               cpw2000
 
#------------------------------------------------
# Energy cutoff, bands,  and Brillouin mesh
#------------------------------------------------
 
PWEnergyCutoff                  10.0000      hartree
 
NumberOfEigenStates                  24
 
%block kgrid_Monkhorst_Pack
               2       0       0       0.500000
               0       2       0       0.500000
               0       0       2       0.500000
%endblock kgrid_Monkhorst_Pack
 
 
#------------------------------------------------
# Active options
#------------------------------------------------
 
MD.TypeOfRun                  EPILBF         # ONE,EPILBF,MICRO,LANG,LBFSYM,VCSLNG,VCSLBF,RSTRT
 
UseSymmetry                   .true.        # .true. , .false. 
 
MD.UseKeatingCorrections      .false.        # .true. , .false. 
 
TypeOfScfDiag                 PW            # PW,AO,AOJC,AOJCPW
 
DualApproximation             .true.         #  .true. , .false.
 
XC.Authors                    CA            # CA, PBE, TBL
 
Xc.TBL.C                      1.04            # sets Tran-Blaha constant (if negative use calculated)
 
PrintingLevel                 1              # 1, 2, 3
 

MD.NumberOfSteps             100             #

#------------------------------------------------
# MD Inactive options
#------------------------------------------------
 
#MD.InitialTemperature        300 K           #
#MD.TargetTemperature         300 K           #
#MD.TargetPressure            0 GPa           #
 
#MD.NumberOfSteps             10              #
#MD.LengthTimeStep            2.4 fs          #
#MD.FrictionFracInvTimeStep   20.0            #
 
#MD.CG.Tolerance         0.0001 'har/bohr'  #
#MD.CG.StepMax                0.01 bohr       #
 
#%block MD.TargetStress                       #
   0.0 0.0 0.0                                #
   0.0 0.0 0.0                                #
   0.0 0.0 0.0                                #
#%endblock   MD.TargetStress                  #
 
#MD.CellMass                   5.0            #
#MD.Seed                      76978           #
 
#------------------------------------------------
# Electronic Structure Inactive options
#------------------------------------------------
 
#MaxSCFIterations             20              #
 
#MaxSCFIterations             20              #
#TypeOfPseudoMixing           BROYD1          # BROYD1, BFGS#
 
#ElectronicTemperature        1000 K          #
#TypeOfPseudopotential        PSEUKB          # PSEUKB
 
#ScfTolerance                 0.00005         #
#DiagTolerance                0.0001          #
#SymmTolerance                1.0E-5          #
