#------------------------------------------------
# Crystal structure
#------------------------------------------------

LatticeConstant               10.26310648     bohr

%block LatticeVectors
         1.22474487         0.00000000         0.00000000
        -0.40824829         1.15470054         0.00000000
         0.00000000         0.00000000         0.70710678
%endblock LatticeVectors

NumberOfSpecies                2

NumberOfAtoms                8

%block Chemical_Species_Label
     1      14   Si
     2      32   Ge
%endblock Chemical_Species_Label

AtomicCoordinatesFormat     Fractional

%block AtomicCoordinatesAndAtomicSpecies
         0.50000000      0.50000000      0.00000000        1     #  Si       1
        -0.12500000      0.62500000      0.00000000        1     #  Si       2
         0.00000000      0.00000000      0.00000000        1     #  Si       3
         0.37500000      0.12500000      0.00000000        1     #  Si       4
         0.51000000      0.00000000      0.53000000        2     #  Ge       1
         0.00000000      0.51000000      0.50000000        1     #  Si       1
         0.37500000      0.62500000      0.50000000        2     #  Ge       1
        -0.12500000      0.12500000      0.50000000        2     #  Ge       2
%endblock AtomicCoordinatesAndAtomicSpecies

StructureSource               ModifiedRede

#------------------------------------------------
# Energy cutoff, bands,  and Brillouin mesh
#------------------------------------------------

PWEnergyCutoff                  10.0000      hartree

NumberOfEigenStates                  24

%block kgrid_Monkhorst_Pack
               4       0       0       0.500000
               0       4       0       0.500000
               0       0       4       0.500000
%endblock kgrid_Monkhorst_Pack


#------------------------------------------------
# Active options
#------------------------------------------------

MD.TypeOfRun                  MICRO        # ONE,EPILBF,MICRO,LANG,LBFSYM,VCSLNG,VCSLBF,RSTRT

UseSymmetry                   .true.        # .true. , .false. 

MD.UseKeatingCorrections      .false.        # .true. , .false. 

TypeOfScfDiag                 AOJCPW            # PW,AO,AOJC,AOJCPW

DualApproximation             .false.         #  .true. , .false.

XC.Authors                    PBE             # CA, PBE, TBL

Xc.TBL.C                      1.04            # sets Tran-Blaha constant (if negative use calculated)

PrintingLevel                 2              # 1, 2, 3



#------------------------------------------------
# MD Active options
#------------------------------------------------

MD.NumberOfSteps             4              #
MD.LengthTimeStep            0.4 fs          #
MD.Seed                      76978           #

#------------------------------------------------
# MD Inactive options
#------------------------------------------------

#MD.InitialTemperature        300 K           #
#MD.TargetTemperature         300 K           #
#MD.TargetPressure            0 GPa           #

#MD.NumberOfSteps             10              #
#MD.LengthTimeStep            2.4 fs          #
#MD.FrictionFracInvTimeStep   20.0            #

#MD.CG.Tolerance         0.0001 'har/bohr'  #
#MD.CG.StepMax                0.01 bohr       #

#%block MD.TargetStress                       #
   0.0 0.0 0.0                                #
   0.0 0.0 0.0                                #
   0.0 0.0 0.0                                #
#%endblock   MD.TargetStress                  #

#MD.CellMass                  10.0            #
#MD.Seed                      76978           #

#------------------------------------------------
# Electronic Structure Inactive options
#------------------------------------------------

#MaxSCFIterations             20              #

#MaxSCFIterations             20              #
#TypeOfPseudoMixing           BROYD1          # BROYD1, BFGS#

#ElectronicTemperature        1000 K          #
#TypeOfPseudopotential        PSEUKB          # PSEUKB

#ScfTolerance                 0.00005         #
#DiagTolerance                0.0001          #
#SymmTolerance                1.0E-5          #
