########################################################################
#                                                                      #
#      cpw.in input file generated by a previous cpw2000 run           #
#                                                                      #
########################################################################
 
SystemLabel                       C   hexagonal gr
 
 
#------------------------------------------------
# Crystal structure
#------------------------------------------------
 
LatticeConstant                4.64100000     bohr
 
%block LatticeVectors
         1.00000000         0.00000000         0.00000000
         0.50000000         0.86602540         0.00000000
         0.00000000         0.00000000         2.73127000
%endblock LatticeVectors
 
NumberOfSpecies                1
 
NumberOfAtoms                2
 
%block Chemical_Species_Label
     1       6   C 
%endblock Chemical_Species_Label
 
AtomicCoordinatesFormat     Fractional
 
%block AtomicCoordinatesAndAtomicSpecies
         0.3333333333      0.3333333333      0.00000000        1     #  C        1
         0.6666666667      0.6666666667      0.00000000        1     #  C        2
%endblock AtomicCoordinatesAndAtomicSpecies
 
StructureSource               cpw2000
 
#------------------------------------------------
# Energy cutoff, bands,  and Brillouin mesh
#------------------------------------------------
 
PWEnergyCutoff                  32.0000      hartree
 
NumberOfEigenStates                  10
 
%block kgrid_Monkhorst_Pack
               4       0       0       0.500000
               0       4       0       0.500000
               0       0       2       0.500000
%endblock kgrid_Monkhorst_Pack
 
 
#------------------------------------------------
# Active options
#------------------------------------------------
 
MD.TypeOfRun                  ONE           # ONE,EPILBF,MICRO,LANG,LBFSYM,VCSLNG,VCSLBF,RSTRT
 
UseSymmetry                   .true.        # .true. , .false. 
 
MD.UseKeatingCorrections      .false.        # .true. , .false. 
 
TypeOfScfDiag                 PW            # PW,AO,AOJC,AOJCPW
 
DualApproximation             .true.         #  .true. , .false.
 
XC.Authors                    CA            # CA, PBE, TBL
 
Xc.TBL.C                      1.04            # sets Tran-Blaha constant (if negative use calculated)
 
PrintingLevel                 2              # 1, 2, 3
 
 
#------------------------------------------------
# MD Inactive options
#------------------------------------------------
 
#MD.InitialTemperature        300 K           #
#MD.TargetTemperature         300 K           #
#MD.TargetPressure            0 GPa           #
 
#MD.NumberOfSteps             10              #
#MD.LengthTimeStep            2.4 fs          #
#MD.FrictionFracInvTimeStep   20.0            #
 
#MD.CG.Tolerance         0.0001 'har/bohr'  #
#MD.CG.StepMax                0.01 bohr       #
 
#%block MD.TargetStress                       #
   0.0 0.0 0.0                                #
   0.0 0.0 0.0                                #
   0.0 0.0 0.0                                #
#%endblock   MD.TargetStress                  #
 
#MD.CellMass                  10.0            #
#MD.Seed                      76978           #
 
#------------------------------------------------
# Electronic Structure Inactive options
#------------------------------------------------
 
#MaxSCFIterations             20              #
 
#MaxSCFIterations             20              #
#TypeOfPseudoMixing           BROYD1          # BROYD1, BFGS#
 
#ElectronicTemperature        1000 K          #
#TypeOfPseudopotential        PSEUKB          # PSEUKB
 
#ScfTolerance                 0.00005         #
#DiagTolerance                0.0001          #
#SymmTolerance                1.0E-5          #
