########################################################################
#                                                                      #
#              cpw2000 cpw.in input file generated by rede             #
#                                                                      #
########################################################################

#------------------------------------------------
# Rede metadata
#------------------------------------------------

%block Rede.Superlattice
                -1     1     0
                 0     0     1
                 2     3    -2
%endblock Rede.Superlattice

Rede.NumberOfLatticePlanes        5

Rede.Version                  2.6

Rede.Title                                                            

Rede.Date                     19-Jun-20

Rede.Time                     15:37:52

Rede.Name                     Ge1,C1_2-Ge1,Ge1_3_@Si_[0,0,1] 

SystemLabel                   Ge1,C1_2-Ge1,Ge1_3_@Si_[0,0,1] 


#------------------------------------------------
# Crystal structure
#------------------------------------------------

LatticeConstant               10.26310648     bohr

%block LatticeVectors
         0.70710678         0.00000000         0.00000000
         0.00000000         0.70710678         0.00000000
         0.35355339         0.35355339         2.50000000
%endblock LatticeVectors

NumberOfSpecies                2

NumberOfAtoms               10

%block Chemical_Species_Label
     1      32   Ge
     2       6   C 
%endblock Chemical_Species_Label

AtomicCoordinatesFormat     Fractional

%block AtomicCoordinatesAndAtomicSpecies
         0.00000000      0.00000000      0.00000000        1     #  Ge       1
        -0.05000000      0.44999999      0.10000000        2     #  C        1
         0.40000001      0.40000001      0.20000000        1     #  Ge       1
         0.34999999      0.85000002      0.30000001        2     #  C        1
         0.80000001      0.80000001      0.40000001        1     #  Ge       1
         0.75000000      0.25000000      0.50000000        1     #  Ge       2
         0.20000000      0.20000000      0.60000002        1     #  Ge       3
         0.15000001      0.64999998      0.69999999        1     #  Ge       4
         0.60000002      0.60000002      0.80000001        1     #  Ge       5
         0.55000001      0.05000000      0.89999998        1     #  Ge       6
%endblock AtomicCoordinatesAndAtomicSpecies

StructureSource               Rede

#------------------------------------------------
# Energy cutoff, bands,  and Brillouin mesh
#------------------------------------------------

PWEnergyCutoff                  40.0000      hartree

NumberOfEigenStates                  28

%block kgrid_Monkhorst_Pack
               4       0       0       0.500000
               0       4       0       0.500000
               0       0       2       0.500000
%endblock kgrid_Monkhorst_Pack


#------------------------------------------------
# Active options
#------------------------------------------------

MD.TypeOfRun                  EPILBF        # ONE,EPILBF,MICRO,LANG,LBFSYM,VCSLNG,VCSLBF,RSTRT,EPILNG

MD.PotentialModel             KEATNG        # KEATNG (do not useLENJON,LJCLST) 

UseSymmetry                   .true.        # .true. , .false. 

MD.UseKeatingCorrections      .true.        # .true. , .false. 

MD.CG.UseFixedkplusG          .false.       # .true. , .false. 

TypeOfScfDiag                 PW            # PW,AO,AOJC,AOJCPW

DualApproximation             .true.         #  .true. , .false.

XC.Authors                    CA             # CA, PBE, TBL

Xc.TBL.C                      1.04            # sets Tran-Blaha constant (if negative use calculated)

PrintingLevel                 1              # 1, 2, 3


#------------------------------------------------
# MD Inactive options
#------------------------------------------------

#MD.InitialTemperature        300 K           #
#MD.TargetTemperature         300 K           #
#MD.TargetPressure            0 GPa           #

#MD.NumberOfSteps             10              #
#MD.LengthTimeStep            0.12 fs         #
#MD.FrictionFracInvTimeStep   20.0            #

#MD.CG.Tolerance         0.0001 'har/bohr'    #
#MD.CG.StepMax                0.01 bohr       #
#MD.CG.FixedkplusGTol    0.01 'har/bohr'      #

#%block MD.TargetStress                       #
   0.0 0.0 0.0                                #
   0.0 0.0 0.0                                #
   0.0 0.0 0.0                                #
#%endblock   MD.TargetStress                  #

#MD.CellMass                  10.0            #
#MD.Seed                      76978           #

#------------------------------------------------
# Electronic Structure Inactive options
#------------------------------------------------

#MaxSCFIterations             20              #

#MaxSCFIterations             20              #
#TypeOfPseudoMixing           BROYD1          # BROYD1, BFGS#

#ElectronicTemperature        1000 K          #
#TypeOfPseudopotential        PSEUKB          # PSEUKB

#ScfTolerance                 0.00005         #
#DiagTolerance                0.0001          #
#SymmTolerance                1.0E-5          #
