########################################################################
#                                                                      #
#      cpw.in input file generated by hand                             #
#                                                                      #
########################################################################

SystemLabel                       TiO2 Rutile


#------------------------------------------------
# Crystal structure
#------------------------------------------------

LatticeConstant                8.68000000     bohr

%block LatticeVectors
         1.00000000         0.00000000         0.00000000
         0.00000000         1.00000000         0.00000000
         0.00000000         0.00000000         0.64400000
%endblock LatticeVectors

NumberOfSpecies                2

NumberOfAtoms                6

%block Chemical_Species_Label
     1      22   Ti
     2       8    O
%endblock Chemical_Species_Label

AtomicCoordinatesFormat     Fractional

%block AtomicCoordinatesAndAtomicSpecies
         0.00000000      0.00000000      0.00000000        1     #  Ti       1
         0.50000000      0.50000000      0.50000000        1     #  Ti       2
         0.30530000      0.30530000      0.00000000        2     #   O       1
        -0.30530000     -0.30530000      0.00000000        2     #   O       2
        -0.19470000      0.19470000      0.50000000        2     #   O       3
         0.19470000     -0.19470000      0.50000000        2     #   O       4
%endblock AtomicCoordinatesAndAtomicSpecies

StructureSource         Wyckhoff      https://www.atomic-scale-physics.de/lattice/struk/c4.html

#------------------------------------------------
# Energy cutoff, bands,  and Brillouin mesh
#------------------------------------------------

PWEnergyCutoff                  60.0000      hartree

NumberOfEigenStates                  30

%block kgrid_Monkhorst_Pack
               4       0       0       0.500000
               0       4       0       0.500000
               0       0       4       0.500000
%endblock kgrid_Monkhorst_Pack


#------------------------------------------------
# Active options
#------------------------------------------------

MD.TypeOfRun                  ONE           # ONE,EPILBF,MICRO,LANG,LBFSYM,VCSLNG,VCSLBF,RSTRT

UseSymmetry                   .true.        # .true. , .false.

MD.UseKeatingCorrections      .false.       # .true. , .false.

MD.UseFixedkplusG             .true.        # .true. , .false.

TypeOfScfDiag                 PW            # PW,AO,AOJC,AOJCPW

DualApproximation             .true.         #  .true. , .false.

XC.Authors                    CA             # CA, PBE, TBL

Xc.TBL.C                      1.04            # sets Tran-Blaha constant (if negative use calculated)

PrintingLevel                 2              # 1, 2, 3


#------------------------------------------------
# MD Inactive options
#------------------------------------------------

#MD.InitialTemperature        300 K           #
#MD.TargetTemperature         300 K           #
#MD.TargetPressure            0 GPa           #

#MD.NumberOfSteps             10              #
#MD.LengthTimeStep            2.4 fs          #
#MD.FrictionFracInvTimeStep   20.0            #

#MD.CG.Tolerance         0.0001 'har/bohr'  #
#MD.CG.StepMax                0.01 bohr       #
#MD.CG.FixedkplusGTol    0.01 'har/bohr'    #

#%block MD.TargetStress                       #
   0.0 0.0 0.0                                #
   0.0 0.0 0.0                                #
   0.0 0.0 0.0                                #
#%endblock   MD.TargetStress                  #

#MD.CellMass                  10.0            #
#MD.Seed                      76978           #

#------------------------------------------------
# Electronic Structure Inactive options
#------------------------------------------------

#MaxSCFIterations             20              #

#MaxSCFIterations             20              #
#TypeOfPseudoMixing           BROYD1          # BROYD1, BFGS#

#ElectronicTemperature        1000 K          #
#TypeOfPseudopotential        PSEUKB          # PSEUKB

#ScfTolerance                 0.00005         #
#DiagTolerance                0.0001          #
#SymmTolerance                1.0E-5          #
