########################################################################
#                                                                      #
#      cpw.in input file generated by pre_relax_vff                    #
#                                                                      #
########################################################################


%block Rede.Superlattice
                -1     1     0
                 0     0     1
                 3     3    -3
%endblock Rede.Superlattice

Rede.NumberOfLatticePlanes        6

SystemLabel                   Si6Ge6_at_Si_[0,0,1]


#------------------------------------------------
# Crystal structure
#------------------------------------------------

LatticeConstant               10.26310648     bohr

%block LatticeVectors
         0.70710678         0.00000000         0.00000000
         0.00000000         0.70710678         0.00000000
         0.00000000         0.00000000         3.10817618
%endblock LatticeVectors

NumberOfSpecies                2

NumberOfAtoms               12

%block Chemical_Species_Label
     1      14   Si
     2      32   Ge
%endblock Chemical_Species_Label

AtomicCoordinatesFormat     Fractional

%block AtomicCoordinatesAndAtomicSpecies
        -0.00000000     -0.00000000      0.00735347        1     #  Si       1
        -0.00000000      0.50000000      0.08767451        1     #  Si       2
         0.50000000      0.50000000      0.16811776        1     #  Si       3
         0.50000000     -0.00000000      0.24854890        1     #  Si       4
        -0.00000000     -0.00000000      0.32899216        1     #  Si       5
        -0.00000000      0.50000000      0.40931320        1     #  Si       6
         0.50000000      0.50000000      0.49266878        2     #  Ge       1
         0.50000000     -0.00000000      0.57899972        2     #  Ge       2
        -0.00000000     -0.00000000      0.66521806        2     #  Ge       3
        -0.00000000      0.50000000      0.75144861        2     #  Ge       4
         0.50000000      0.50000000      0.83766695        2     #  Ge       5
         0.50000000     -0.00000000      0.92399789        2     #  Ge       6
%endblock AtomicCoordinatesAndAtomicSpecies

StructureSource               pre_relax_vff

#------------------------------------------------
# Energy cutoff, bands,  and Brillouin mesh
#------------------------------------------------

PWEnergyCutoff                  10.0000      hartree

NumberOfEigenStates                  33

%block kgrid_Monkhorst_Pack
               4       0       0       0.500000
               0       4       0       0.500000
               0       0       2       0.500000
%endblock kgrid_Monkhorst_Pack


#------------------------------------------------
# Active options
#------------------------------------------------

MD.TypeOfRun                  ONE        # ONE,EPILBF,MICRO,LANG,LBFSYM,VCSLNG,VCSLBF,RSTRT,EPILNG

MD.PotentialModel             KEATNG        # KEATNG (do not use LENJON,LJCLST)

UseSymmetry                   .true.        # .true. , .false.

MD.UseKeatingCorrections      .false.       # .true. , .false.

MD.CG.UseFixedkplusG          .false.       # .true. , .false.

TypeOfScfDiag                 PW        # PW,AO,AOJC,AOJCPW

DualApproximation             .true.        #  .true. , .false.

XC.Authors                    CA            # CA, PBE, TBL

Xc.TBL.C                      1.04          # sets Tran-Blaha constant (if negative use calculated)

PrintingLevel                 2             # 1, 2, 3




#------------------------------------------------
# MD Inactive options
#------------------------------------------------

#MD.InitialTemperature        300 K           #
#MD.TargetTemperature         300 K           #
#MD.TargetPressure            0 GPa           #

#MD.NumberOfSteps             10              #
#MD.LengthTimeStep            2.4 fs          #
#MD.FrictionFracInvTimeStep   20.0            #

#MD.CG.Tolerance         0.0001 'har/bohr'    #
#MD.CG.StepMax                0.01 bohr       #
#MD.CG.FixedkplusGTol    0.01 'har/bohr'      #

#%block MD.TargetStress                       #
   0.0 0.0 0.0                                #
   0.0 0.0 0.0                                #
   0.0 0.0 0.0                                #
#%endblock   MD.TargetStress                  #

#MD.CellMass                  10.0            #
#MD.Seed                      76978           #

#------------------------------------------------
# Electronic Structure Inactive options
#------------------------------------------------

#TypeOfPseudoMixing           BROYD1          # BROYD1, BFGS#

#TypeOfPseudopotential        PSEUKB          # PSEUKB
#ElectronicTemperature        300 K          #

#ScfTolerance                 0.00005         #
#DiagTolerance                0.0001          #
#SymmTolerance                1.0E-5          #

#MaxSCFIterations            40              #

#MaxDiagIterations            50              #
