########################################################################
#                                                                      #
#      cpw.in input file generated by hand                             #
#                                                                      #
########################################################################

SystemLabel      Rhombohedral alpha boron


#------------------------------------------------
# Crystal structure
#------------------------------------------------

LatticeConstant                9.2748     bohr

%block LatticeVectors
         0.50000000        -0.28867513         0.85340000
         0.00000000         0.57735027         0.85340000
        -0.50000000        -0.28867513         0.85340000
%endblock LatticeVectors

NumberOfSpecies                1

NumberOfAtoms                12

%block Chemical_Species_Label
     1       5   B
%endblock Chemical_Species_Label

AtomicCoordinatesFormat     Fractional

%block AtomicCoordinatesAndAtomicSpecies
  0.01040   0.01040   0.65729         1   #   B  1
  0.65729   0.01040   0.01040         1   #   B  2
  0.01040   0.65729   0.01040         1   #   B  3
 -0.65729  -0.01040  -0.01040         1   #   B  4
 -0.01040  -0.01040  -0.65729         1   #   B  5
 -0.01040  -0.65729  -0.01040         1   #   B  6
  0.22060   0.22060   0.63230         1   #   B  7
  0.63230   0.22060   0.22060         1   #   B  8
  0.22060   0.63230   0.22060         1   #   B  9
 -0.63230  -0.22060  -0.22060         1   #   B  10
 -0.22060  -0.22060  -0.63230         1   #   B  11
 -0.22060  -0.63230  -0.22060         1   #   B  12
%endblock AtomicCoordinatesAndAtomicSpecies

StructureSource               cpw2000

#------------------------------------------------
# Energy cutoff, bands,  and Brillouin mesh
#------------------------------------------------

PWEnergyCutoff                  25.0000      hartree

NumberOfEigenStates                   24

%block kgrid_Monkhorst_Pack
               3       0       0       0.500000
               0       3       0       0.500000
               0       0       3       0.500000
%endblock kgrid_Monkhorst_Pack


#------------------------------------------------
# Active options
#------------------------------------------------

MD.TypeOfRun                  ONE           # ONE,EPILBF,MICRO,LANG,LBFSYM,VCSLNG,VCSLBF,RSTRT

UseSymmetry                   .true.        # .true. , .false.

MD.UseKeatingCorrections      .false.        # .true. , .false.

TypeOfScfDiag                 PW            # PW,AO,AOJC,AOJCPW

DualApproximation             .true.         #  .true. , .false.

XC.Authors                    CA            # CA, PBE, TBL

Xc.TBL.C                      1.04            # sets Tran-Blaha constant (if negative use calculated)

PrintingLevel                 2              # 1, 2, 3


#------------------------------------------------
# MD Inactive options
#------------------------------------------------

#MD.InitialTemperature        300 K           #
#MD.TargetTemperature         300 K           #
#MD.TargetPressure            0 GPa           #

#MD.NumberOfSteps             10              #
#MD.LengthTimeStep            2.4 fs          #
#MD.FrictionFracInvTimeStep   20.0            #

#MD.CG.Tolerance         0.0001 'har/bohr'  #
#MD.CG.StepMax                0.01 bohr       #

#%block MD.TargetStress                       #
   0.0 0.0 0.0                                #
   0.0 0.0 0.0                                #
   0.0 0.0 0.0                                #
#%endblock   MD.TargetStress                  #

#MD.CellMass                  10.0            #
#MD.Seed                      76978           #

#------------------------------------------------
# Electronic Structure Inactive options
#------------------------------------------------

#MaxSCFIterations             20              #

#MaxSCFIterations             20              #
#TypeOfPseudoMixing           BROYD1          # BROYD1, BFGS#

#ElectronicTemperature        1000 K          #
#TypeOfPseudopotential        PSEUKB          # PSEUKB

#ScfTolerance                 0.00005         #
#DiagTolerance                0.0001          #
#SymmTolerance                1.0E-5          #
