########################################################################
#                                                                      #
#      cpw.in input file generated by hand                             #
#                                                                      #
########################################################################

SystemLabel                       hcp La  P63/mmc


#------------------------------------------------
# Crystal structure
#------------------------------------------------

LatticeConstant                7.1280000     bohr

%block LatticeVectors
         1.00000000         0.00000000         0.00000000
        -0.50000000         0.86602540         0.00000000
         0.00000000         0.00000000         1.60980000
%endblock LatticeVectors

NumberOfSpecies                1

NumberOfAtoms                2

%block Chemical_Species_Label
     1      57   La
%endblock Chemical_Species_Label

AtomicCoordinatesFormat     Fractional

%block AtomicCoordinatesAndAtomicSpecies
         0.00000000      0.00000000      0.00000000        1     #  La       1
         0.33333333      0.66666667      0.50000000        1     #  La       2
%endblock AtomicCoordinatesAndAtomicSpecies

StructureSource            Wyckoff,   https://www.webelements.com/lanthanum/crystal_structure.html

#------------------------------------------------
# Energy cutoff, bands,  and Brillouin mesh
#------------------------------------------------

PWEnergyCutoff                 14.0000      hartree

NumberOfEigenStates                   8

%block kgrid_Monkhorst_Pack
              12       0       0       0.500000
               0      12       0       0.500000
               0       0       8       0.500000
%endblock kgrid_Monkhorst_Pack

ElectronicTemperature        50 K          #


#------------------------------------------------
# Active options
#------------------------------------------------

MD.TypeOfRun                  ONE           # ONE,EPILBF,MICRO,LANG,LBFSYM,VCSLNG,VCSLBF,RSTRT

UseSymmetry                   .true.        # .true. , .false.

MD.UseKeatingCorrections      .false.       # .true. , .false.

MD.UseFixedkplusG             .false.        # .true. , .false.

TypeOfScfDiag                 PW            # PW,AO,AOJC,AOJCPW

DualApproximation             .true.         #  .true. , .false.

XC.Authors                    CA             # CA, PBE, TBL

Xc.TBL.C                      1.04            # sets Tran-Blaha constant (if negative use calculated)

PrintingLevel                 2              # 1, 2, 3


#------------------------------------------------
# MD Inactive options
#------------------------------------------------

#MD.InitialTemperature        300 K           #
#MD.TargetTemperature         300 K           #
#MD.TargetPressure            0 GPa           #

#MD.NumberOfSteps             10              #
#MD.LengthTimeStep            2.4 fs          #
#MD.FrictionFracInvTimeStep   20.0            #

#MD.CG.Tolerance         0.0001 'har/bohr'  #
#MD.CG.StepMax                0.01 bohr       #
#MD.CG.FixedkplusGTol    0.01 'har/bohr'    #

#%block MD.TargetStress                       #
   0.0 0.0 0.0                                #
   0.0 0.0 0.0                                #
   0.0 0.0 0.0                                #
#%endblock   MD.TargetStress                  #

#MD.CellMass                  10.0            #
#MD.Seed                      76978           #

#------------------------------------------------
# Electronic Structure Inactive options
#------------------------------------------------

#MaxSCFIterations             20              #

#MaxSCFIterations             20              #
#TypeOfPseudoMixing           BROYD1          # BROYD1, BFGS#

#ElectronicTemperature        1000 K          #
#TypeOfPseudopotential        PSEUKB          # PSEUKB

#ScfTolerance                 0.00005         #
#DiagTolerance                0.0001          #
#SymmTolerance                1.0E-5          #
